Zn2 F4                                  
   1.00000000000000     
     9.5679995346000002    0.0000000000000000    0.0000000000000000
     0.0000000000000000    9.5679995346000002    0.0000000000000000
     0.0000000000000000    0.0000000000000000    9.6039145660000003
   Zn   F 
    24    48
Direct
  0.2486866260500652  0.2579647783380370  0.1649999477481873
  0.2534345608066984  0.2530946844721751  0.5058518820504029
  0.2428374821856906  0.2459743668479692  0.8318563742431395
  0.2541394778286969  0.7646080771776144  0.1593761401371708
  0.2560383006429282  0.7438584122481124  0.4937380010020156
  0.2336561382164858  0.7437346266936024  0.8300365764307132
  0.7461466654599734  0.2428237325116686  0.1634833613181413
  0.7503586627153137  0.2424119369507286  0.5051095436231596
  0.7417124118378225  0.2506549285976316  0.8407822746415938
  0.7446440713415438  0.7538479409403414  0.1744730636389931
  0.7552677310927101  0.7592541207676468  0.5070563233915916
  0.7463753181571766  0.7467326521472940  0.8349697489579724
 -0.0103715847418031  1.0086125823844629 -0.0061840281473744
  0.0055937939171148 -0.0051464739565031  0.3318515987043825
  1.0072065245578767  0.0013966401382403  0.6718330974222444
  0.0035754056283339  0.5070178976945745 -0.0008241559639819
  0.9778237758040645  0.5009078321831002  0.3414387755204690
  1.0101848904218715  0.4860193234812719  0.6564612664164464
  0.4986063360944792  0.9916331679092897 -0.0000018992782108
  0.5067114720996095  1.0130865623203471  0.3353704161548536
  0.5016369055030181 -0.0070494503600391  0.6570857544198893
  0.4815647261233383  0.5143527429492999  0.0038518602111893
  0.5234642175745597  0.4878680818014946  0.3277676242797503
  0.4919602661195344  0.5084911279032416  0.6557461904737401
  0.3626035092051341  0.3540142374508809  1.0021844375342435
  0.3533048215916247  0.3366801785600856  0.3368454458720299
  0.3387189981238915  0.3514464632325257  0.6691006262571004
  0.3459646131177819  0.8473840837769153  0.9792869734754306
  0.3577518439379084  0.8560720663318537  0.3254426446856893
  0.3382839810123208  0.8443277925408722  0.6595152171503010
  0.8572971955982345  0.3393686988918060 -0.0031221477147492
  0.8251353854571829  0.3513511695703250  0.3285670823947121
  0.8443686375496444  0.3508929818295168  0.6677952359841028
  0.8539266530553202  0.8417992221346530  0.0139186175809505
  0.8598022352797607  0.8502624784638618  0.3396015335003161
  0.8422338256387772  0.8653119040765352  0.6598909850567973
  0.3929200211604126  0.1030491326821937  0.1691012271423114
  0.4185962614305012  0.1074070882419396  0.5074229669582696
  0.3920109028076295  0.0847828241777846  0.8201822620577012
  0.4155480728663010  0.6098909630886780  0.1871426353560995
  0.3993633400644784  0.5891039478105601  0.4844849420788551
  0.4108193737269660  0.6055303813504596  0.8315664142828305
  0.9292453856259348  0.1255875118713160  0.1528521593455123
  0.9005971730736386  0.0919284862077220  0.5072788724014300
  0.9057439648223184  0.1033137106470317  0.8299735243199308
  0.9144746976368550  0.6046527301063035  0.1679719695593002
  0.9000445331954773  0.5926763121787664  0.5074255381598433
  0.8958918575892665  0.6108005344691703  0.8434650290875748
  0.1481191532671567  0.1541871145745095  0.0092435364532958
  0.1649893741393024  0.1439632324940316  0.3421473540961775
  0.1422620528094468  0.1607324889105602  0.6759944082043255
  0.1645562712361147  0.6415030142546910 -0.0009699022659020
  0.1479064166274324  0.6501360410858378  0.3387404591726976
  0.1693888273286160  0.6296684996926590  0.6760004806808722
  0.6459546361458516  0.1427137600032505 -0.0005461093319822
  0.6583120400653248  0.1414991411567164  0.3306101673148854
  0.6712205372597030  0.1492598976047551  0.6804934581484756
  0.6539644810788402  0.6496488147093264  1.0119895719069325
  0.6601321860091250  0.6559726246077704  0.3485762031717882
  0.6629763176093657  0.6545742315788927  0.6732062893318329
  0.0968910772415040  0.4037042948273319  0.1660446838414340
  0.1001497591450192  0.3966294387758231  0.4879999897012242
  0.0954818793480229  0.4103333104894177  0.8354814614371370
  0.1061244050781136  0.9030871557477108  0.1571442858379234
  0.0886148395030419  0.8848659517730906  0.5057617097592032
  0.1009373694381766  0.9036115714190690  0.8410156673419993
  0.5948640229176932  0.3892918506270962  0.1552122472357111
  0.5864278339186756  0.3783252636565855  0.4980813449119524
  0.5977813040471427  0.4033144112518925  0.8372748175370273
  0.5888585149176768  0.8959887867711543  0.1585985274162758
  0.6072424762061575  0.9149132599773959  0.4948712022176552
  0.5911380137078429  0.8826196383789342  0.8368752570303457
 
 -0.53591688E-03 -0.66052630E-03  0.23122917E-02
 -0.32595982E-02  0.18809884E-02  0.61436113E-03
 -0.20482000E-03  0.10520521E-02  0.18611277E-03
  0.97716966E-03 -0.19710563E-02  0.40695724E-03
  0.14348296E-02  0.19603584E-02  0.17445459E-03
 -0.10544110E-02 -0.96552116E-03 -0.16673251E-02
  0.35393342E-02 -0.34744267E-02  0.43473314E-04
 -0.43993926E-02 -0.16960667E-02 -0.11168873E-02
  0.32434534E-02 -0.34311457E-02  0.46083592E-03
 -0.48203509E-03  0.83505356E-03  0.29790823E-02
  0.20421430E-02  0.19667458E-02 -0.97031498E-03
 -0.21234392E-03  0.28838921E-02  0.16168646E-02
 -0.34921764E-03  0.71168797E-03  0.11029005E-02
  0.64332673E-03 -0.39659981E-03 -0.16176178E-02
 -0.11471186E-02 -0.25291200E-02 -0.99804467E-04
 -0.59568110E-03  0.12138157E-02  0.31028093E-03
 -0.10500845E-02 -0.13162605E-02 -0.18948953E-02
  0.89288160E-03  0.52968203E-03  0.65385535E-03
 -0.64766279E-03 -0.15557237E-02  0.45201603E-03
  0.40465270E-02 -0.49640197E-03 -0.17862829E-02
 -0.50608474E-04  0.62696037E-03  0.23297646E-02
 -0.61466977E-03 -0.59997272E-03  0.32615701E-02
 -0.31492363E-02 -0.45651656E-03 -0.22616902E-02
 -0.12008305E-02  0.10155164E-02  0.12439316E-03
  0.19286069E-02  0.27148183E-02  0.13274794E-03
  0.12464422E-02 -0.28661300E-02 -0.67091510E-02
  0.49113917E-02  0.26864523E-02 -0.38863680E-03
 -0.62963795E-03  0.46292092E-02 -0.86827147E-03
  0.20947096E-02  0.16790225E-02 -0.36582633E-02
  0.42190895E-03  0.20991053E-02  0.73679094E-03
  0.22471648E-02  0.65457105E-02  0.32580077E-03
  0.10256885E-02 -0.29543693E-02  0.60210817E-03
  0.73153548E-04  0.25235964E-03 -0.96694268E-03
  0.28318298E-03 -0.46447877E-02 -0.42589403E-02
  0.53085490E-03 -0.82044134E-03 -0.17795622E-03
  0.17087734E-02 -0.69521000E-03  0.63966925E-03
  0.33819878E-02  0.35247981E-03  0.19786626E-02
 -0.88124513E-03  0.22994489E-02  0.28246686E-02
 -0.22800692E-02 -0.64096477E-03 -0.14638247E-02
  0.92715258E-03 -0.11482751E-02  0.45065323E-02
 -0.61881189E-02  0.64308336E-02 -0.31221247E-02
 -0.12906159E-02 -0.45692174E-02  0.32518882E-02
 -0.14165910E-02 -0.20982457E-02 -0.71410524E-02
  0.43151640E-03  0.70520568E-02 -0.41992354E-02
 -0.24824139E-02 -0.77966946E-02 -0.20232764E-02
 -0.65779529E-02 -0.19456806E-02  0.34015310E-02
 -0.25138455E-02 -0.17801969E-02 -0.32161986E-02
 -0.23303355E-02 -0.33073684E-02 -0.67634003E-03
 -0.35971593E-02  0.78648472E-02 -0.20762957E-02
 -0.29186120E-02  0.19801343E-02 -0.20337799E-02
  0.15517467E-02  0.46408102E-02  0.42211714E-02
  0.17190932E-02  0.29905845E-02 -0.16255977E-02
 -0.19484105E-06  0.66422341E-03 -0.30829390E-02
  0.10519514E-01  0.30615171E-02  0.39636147E-02
 -0.74590962E-03  0.98242907E-03 -0.77009779E-02
  0.51247655E-02  0.52684212E-02  0.97090137E-03
 -0.43504900E-02 -0.27432819E-02  0.14370035E-02
 -0.52348690E-03  0.86929141E-04 -0.39132218E-02
  0.28013613E-02 -0.27781840E-02 -0.10760034E-02
  0.42072240E-02  0.38429148E-02 -0.33732407E-02
  0.14812674E-03  0.19562004E-02  0.43905720E-02
 -0.20814412E-02 -0.35938860E-02  0.33317929E-03
 -0.33510922E-02 -0.86851596E-03 -0.36472758E-02
  0.14210911E-02  0.16677709E-02  0.44939450E-02
 -0.29787978E-02 -0.48809290E-02  0.30056397E-03
 -0.19408981E-02  0.20790102E-02  0.67700245E-02
  0.63518144E-02 -0.46928829E-02  0.21819566E-02
 -0.32643099E-02  0.44676267E-02 -0.18459874E-02
  0.40033135E-02 -0.76953232E-03 -0.91179368E-03
  0.30363943E-02 -0.16842099E-02 -0.10419754E-02
 -0.54280141E-02 -0.56263517E-02 -0.14422322E-03
  0.30192256E-02  0.13815919E-02  0.45557716E-02
 
           1
   1.00000000000000     
  0.22091156E+00  0.26335493E-01  0.28037855E-01  0.19372489E+00
  0.24863061E+00  0.25789574E+00  0.16524071E+00
  0.25309388E+00  0.25329128E+00  0.50591585E+00
  0.24281608E+00  0.24608432E+00  0.83187575E+00
  0.25424161E+00  0.76440207E+00  0.15941851E+00
  0.25618826E+00  0.74406330E+00  0.49375617E+00
  0.23354594E+00  0.74363372E+00  0.82986297E+00
  0.74651658E+00  0.24246060E+00  0.16348789E+00
  0.74989886E+00  0.24223467E+00  0.50499325E+00
  0.74205140E+00  0.25029632E+00  0.84083026E+00
  0.74459369E+00  0.75393522E+00  0.17478326E+00
  0.75548117E+00  0.75945968E+00  0.50695529E+00
  0.74635313E+00  0.74703406E+00  0.83513810E+00
  0.98959192E+00  0.86869645E-02  0.99393081E+00
  0.56610312E-02  0.99481208E+00  0.33168317E+00
  0.70866334E-02  0.11323090E-02  0.67182271E+00
  0.35131480E-02  0.50714476E+00  0.99920815E+00
  0.97771403E+00  0.50077026E+00  0.34124147E+00
  0.10278210E-01  0.48607468E+00  0.65652935E+00
  0.49853865E+00  0.99147057E+00  0.45166533E-04
  0.50713440E+00  0.13034681E-01  0.33518442E+00
  0.50163162E+00  0.99301608E+00  0.65732834E+00
  0.48150048E+00  0.51429004E+00  0.41914686E-02
  0.52313507E+00  0.48782037E+00  0.32753213E+00
  0.49183476E+00  0.50859726E+00  0.65575914E+00
  0.36280508E+00  0.35429798E+00  0.21982598E-02
  0.35343509E+00  0.33638062E+00  0.33614686E+00
  0.33923231E+00  0.35172724E+00  0.66906016E+00
  0.34589881E+00  0.84786791E+00  0.97919657E+00
  0.35797077E+00  0.85624755E+00  0.32506173E+00
  0.33832808E+00  0.84454718E+00  0.65959193E+00
  0.85753206E+00  0.34005282E+00  0.99691178E+00
  0.82524259E+00  0.35104239E+00  0.32862978E+00
  0.84437628E+00  0.35091936E+00  0.66769455E+00
  0.85395625E+00  0.84131377E+00  0.13475159E-01
  0.85985772E+00  0.85017673E+00  0.33958300E+00
  0.84241242E+00  0.86523924E+00  0.65995759E+00
  0.39327349E+00  0.10308597E+00  0.16930725E+00
  0.41850416E+00  0.10764742E+00  0.50771708E+00
  0.39177260E+00  0.84715834E-01  0.82002984E+00
  0.41564497E+00  0.60977095E+00  0.18761187E+00
  0.39871659E+00  0.58977607E+00  0.48415985E+00
  0.41068448E+00  0.60505283E+00  0.83190501E+00
  0.92909733E+00  0.12536821E+00  0.15210860E+00
  0.90064227E+00  0.92665532E-01  0.50684163E+00
  0.90548452E+00  0.10249884E+00  0.82976285E+00
  0.91378720E+00  0.60444938E+00  0.16832615E+00
  0.89978180E+00  0.59249025E+00  0.50709065E+00
  0.89564830E+00  0.61045486E+00  0.84339461E+00
  0.14774320E+00  0.15500911E+00  0.90273438E-02
  0.16468434E+00  0.14417019E+00  0.34193559E+00
  0.14242423E+00  0.16121752E+00  0.67643393E+00
  0.16473594E+00  0.64181558E+00  0.99886083E+00
  0.14790640E+00  0.65020546E+00  0.33841945E+00
  0.17048827E+00  0.62998847E+00  0.67641319E+00
  0.64587668E+00  0.14281644E+00  0.99865203E+00
  0.65884766E+00  0.14204977E+00  0.33071126E+00
  0.67076585E+00  0.14897318E+00  0.68064308E+00
  0.65390977E+00  0.64965790E+00  0.11582111E-01
  0.66042497E+00  0.65568226E+00  0.34846417E+00
  0.66341604E+00  0.65497587E+00  0.67285505E+00
  0.96906559E-01  0.40390875E+00  0.16650185E+00
  0.99932217E-01  0.39625382E+00  0.48803468E+00
  0.95131640E-01  0.41024254E+00  0.83510169E+00
  0.10627293E+00  0.90326146E+00  0.15761221E+00
  0.88303510E-01  0.88435582E+00  0.50579301E+00
  0.10073452E+00  0.90382886E+00  0.84172059E+00
  0.59552788E+00  0.38880137E+00  0.15543944E+00
  0.58608666E+00  0.37879220E+00  0.49788913E+00
  0.59819971E+00  0.40323398E+00  0.83717988E+00
  0.58917586E+00  0.89581276E+00  0.15849003E+00
  0.60667517E+00  0.91432522E+00  0.49485619E+00
  0.59145357E+00  0.88276404E+00  0.83734962E+00
  0.00000000E+00  0.00000000E+00  0.00000000E+00
  0.00000000E+00  0.00000000E+00  0.00000000E+00
  0.00000000E+00  0.00000000E+00  0.00000000E+00
  0.00000000E+00  0.00000000E+00  0.00000000E+00
  0.00000000E+00  0.00000000E+00  0.00000000E+00
  0.00000000E+00  0.00000000E+00  0.00000000E+00
  0.00000000E+00  0.00000000E+00  0.00000000E+00
  0.00000000E+00  0.00000000E+00  0.00000000E+00
  0.00000000E+00  0.00000000E+00  0.00000000E+00
  0.00000000E+00  0.00000000E+00  0.00000000E+00
  0.00000000E+00  0.00000000E+00  0.00000000E+00
  0.00000000E+00  0.00000000E+00  0.00000000E+00
  0.00000000E+00  0.00000000E+00  0.00000000E+00
  0.00000000E+00  0.00000000E+00  0.00000000E+00
  0.00000000E+00  0.00000000E+00  0.00000000E+00
  0.00000000E+00  0.00000000E+00  0.00000000E+00
  0.00000000E+00  0.00000000E+00  0.00000000E+00
  0.00000000E+00  0.00000000E+00  0.00000000E+00
  0.00000000E+00  0.00000000E+00  0.00000000E+00
  0.00000000E+00  0.00000000E+00  0.00000000E+00
  0.00000000E+00  0.00000000E+00  0.00000000E+00
  0.00000000E+00  0.00000000E+00  0.00000000E+00
  0.00000000E+00  0.00000000E+00  0.00000000E+00
  0.00000000E+00  0.00000000E+00  0.00000000E+00
  0.00000000E+00  0.00000000E+00  0.00000000E+00
  0.00000000E+00  0.00000000E+00  0.00000000E+00
  0.00000000E+00  0.00000000E+00  0.00000000E+00
  0.00000000E+00  0.00000000E+00  0.00000000E+00
  0.00000000E+00  0.00000000E+00  0.00000000E+00
  0.00000000E+00  0.00000000E+00  0.00000000E+00
  0.00000000E+00  0.00000000E+00  0.00000000E+00
  0.00000000E+00  0.00000000E+00  0.00000000E+00
  0.00000000E+00  0.00000000E+00  0.00000000E+00
  0.00000000E+00  0.00000000E+00  0.00000000E+00
  0.00000000E+00  0.00000000E+00  0.00000000E+00
  0.00000000E+00  0.00000000E+00  0.00000000E+00
  0.00000000E+00  0.00000000E+00  0.00000000E+00
  0.00000000E+00  0.00000000E+00  0.00000000E+00
  0.00000000E+00  0.00000000E+00  0.00000000E+00
  0.00000000E+00  0.00000000E+00  0.00000000E+00
  0.00000000E+00  0.00000000E+00  0.00000000E+00
  0.00000000E+00  0.00000000E+00  0.00000000E+00
  0.00000000E+00  0.00000000E+00  0.00000000E+00
  0.00000000E+00  0.00000000E+00  0.00000000E+00
  0.00000000E+00  0.00000000E+00  0.00000000E+00
  0.00000000E+00  0.00000000E+00  0.00000000E+00
  0.00000000E+00  0.00000000E+00  0.00000000E+00
  0.00000000E+00  0.00000000E+00  0.00000000E+00
  0.00000000E+00  0.00000000E+00  0.00000000E+00
  0.00000000E+00  0.00000000E+00  0.00000000E+00
  0.00000000E+00  0.00000000E+00  0.00000000E+00
  0.00000000E+00  0.00000000E+00  0.00000000E+00
  0.00000000E+00  0.00000000E+00  0.00000000E+00
  0.00000000E+00  0.00000000E+00  0.00000000E+00
  0.00000000E+00  0.00000000E+00  0.00000000E+00
  0.00000000E+00  0.00000000E+00  0.00000000E+00
  0.00000000E+00  0.00000000E+00  0.00000000E+00
  0.00000000E+00  0.00000000E+00  0.00000000E+00
  0.00000000E+00  0.00000000E+00  0.00000000E+00
  0.00000000E+00  0.00000000E+00  0.00000000E+00
  0.00000000E+00  0.00000000E+00  0.00000000E+00
  0.00000000E+00  0.00000000E+00  0.00000000E+00
  0.00000000E+00  0.00000000E+00  0.00000000E+00
  0.00000000E+00  0.00000000E+00  0.00000000E+00
  0.00000000E+00  0.00000000E+00  0.00000000E+00
  0.00000000E+00  0.00000000E+00  0.00000000E+00
  0.00000000E+00  0.00000000E+00  0.00000000E+00
  0.00000000E+00  0.00000000E+00  0.00000000E+00
  0.00000000E+00  0.00000000E+00  0.00000000E+00
  0.00000000E+00  0.00000000E+00  0.00000000E+00
  0.00000000E+00  0.00000000E+00  0.00000000E+00
  0.00000000E+00  0.00000000E+00  0.00000000E+00
  0.00000000E+00  0.00000000E+00  0.00000000E+00
  0.00000000E+00  0.00000000E+00  0.00000000E+00
  0.00000000E+00  0.00000000E+00  0.00000000E+00
  0.00000000E+00  0.00000000E+00  0.00000000E+00
  0.00000000E+00  0.00000000E+00  0.00000000E+00
  0.00000000E+00  0.00000000E+00  0.00000000E+00
  0.00000000E+00  0.00000000E+00  0.00000000E+00
  0.00000000E+00  0.00000000E+00  0.00000000E+00
  0.00000000E+00  0.00000000E+00  0.00000000E+00
  0.00000000E+00  0.00000000E+00  0.00000000E+00
  0.00000000E+00  0.00000000E+00  0.00000000E+00
  0.00000000E+00  0.00000000E+00  0.00000000E+00
  0.00000000E+00  0.00000000E+00  0.00000000E+00
  0.00000000E+00  0.00000000E+00  0.00000000E+00
  0.00000000E+00  0.00000000E+00  0.00000000E+00
  0.00000000E+00  0.00000000E+00  0.00000000E+00
  0.00000000E+00  0.00000000E+00  0.00000000E+00
  0.00000000E+00  0.00000000E+00  0.00000000E+00
  0.00000000E+00  0.00000000E+00  0.00000000E+00
  0.00000000E+00  0.00000000E+00  0.00000000E+00
  0.00000000E+00  0.00000000E+00  0.00000000E+00
  0.00000000E+00  0.00000000E+00  0.00000000E+00
  0.00000000E+00  0.00000000E+00  0.00000000E+00
  0.00000000E+00  0.00000000E+00  0.00000000E+00
  0.00000000E+00  0.00000000E+00  0.00000000E+00
  0.00000000E+00  0.00000000E+00  0.00000000E+00
  0.00000000E+00  0.00000000E+00  0.00000000E+00
  0.00000000E+00  0.00000000E+00  0.00000000E+00
  0.00000000E+00  0.00000000E+00  0.00000000E+00
  0.00000000E+00  0.00000000E+00  0.00000000E+00
  0.00000000E+00  0.00000000E+00  0.00000000E+00
  0.00000000E+00  0.00000000E+00  0.00000000E+00
  0.00000000E+00  0.00000000E+00  0.00000000E+00
  0.00000000E+00  0.00000000E+00  0.00000000E+00
  0.00000000E+00  0.00000000E+00  0.00000000E+00
  0.00000000E+00  0.00000000E+00  0.00000000E+00
  0.00000000E+00  0.00000000E+00  0.00000000E+00
  0.00000000E+00  0.00000000E+00  0.00000000E+00
  0.00000000E+00  0.00000000E+00  0.00000000E+00
  0.00000000E+00  0.00000000E+00  0.00000000E+00
  0.00000000E+00  0.00000000E+00  0.00000000E+00
  0.00000000E+00  0.00000000E+00  0.00000000E+00
  0.00000000E+00  0.00000000E+00  0.00000000E+00
  0.00000000E+00  0.00000000E+00  0.00000000E+00
  0.00000000E+00  0.00000000E+00  0.00000000E+00
  0.00000000E+00  0.00000000E+00  0.00000000E+00
  0.00000000E+00  0.00000000E+00  0.00000000E+00
  0.00000000E+00  0.00000000E+00  0.00000000E+00
  0.00000000E+00  0.00000000E+00  0.00000000E+00
  0.00000000E+00  0.00000000E+00  0.00000000E+00
  0.00000000E+00  0.00000000E+00  0.00000000E+00
  0.00000000E+00  0.00000000E+00  0.00000000E+00
  0.00000000E+00  0.00000000E+00  0.00000000E+00
  0.00000000E+00  0.00000000E+00  0.00000000E+00
  0.00000000E+00  0.00000000E+00  0.00000000E+00
  0.00000000E+00  0.00000000E+00  0.00000000E+00
  0.00000000E+00  0.00000000E+00  0.00000000E+00
  0.00000000E+00  0.00000000E+00  0.00000000E+00
  0.00000000E+00  0.00000000E+00  0.00000000E+00
  0.00000000E+00  0.00000000E+00  0.00000000E+00
  0.00000000E+00  0.00000000E+00  0.00000000E+00
  0.00000000E+00  0.00000000E+00  0.00000000E+00
  0.00000000E+00  0.00000000E+00  0.00000000E+00
  0.00000000E+00  0.00000000E+00  0.00000000E+00
  0.00000000E+00  0.00000000E+00  0.00000000E+00
  0.00000000E+00  0.00000000E+00  0.00000000E+00
  0.00000000E+00  0.00000000E+00  0.00000000E+00
  0.00000000E+00  0.00000000E+00  0.00000000E+00
  0.00000000E+00  0.00000000E+00  0.00000000E+00
  0.00000000E+00  0.00000000E+00  0.00000000E+00
  0.00000000E+00  0.00000000E+00  0.00000000E+00
  0.00000000E+00  0.00000000E+00  0.00000000E+00
