NaFNPT                                  
   1.00000000000000     
     9.4069619572559304    0.0031333384790655    0.0196151152233961
    -0.0000000000067388    9.4069678773824030    0.0233095823872160
    -0.0000000000027863   -0.0000000000036032    9.4069677853730909
   F    Na
    32    32
Direct
  0.2385518977818289  1.0104707926095631 -0.0010100092705991
  0.2664978740683018 -0.0141476278147835  0.4969459830426350
  0.2505790774587932  0.4976194957015250  0.9979247001258993
  0.2630685517389019  0.4745218475292345  0.5118430859206841
  0.2469838214994718  0.2607064946928170  0.2508937561884421
  0.2540662924106200  0.2435347263360339  0.7600441922192176
  0.2612199515518836  0.7287359407630433  0.2371715127191909
  0.2497679732930934  0.7434264469459563  0.7421829675756710
 -0.0184330436891568  0.2564822827991310  0.0015909764867652
 -0.0080954801588385  0.2666723734262569  0.4923686599647799
 -0.0044151500872452 -0.0140008279683704  0.2441002641337506
  1.0188946925176912  1.0199198839038186  0.7571009215015105
 -0.0138190204116996  0.4831950913230455  0.2460300727247360
  1.0019702018171925  0.5069475959338645  0.7432535740276994
  1.0023730877932864  0.7554290686919367  0.9795418649276976
  0.0056065035211285  0.7614438316191607  0.4946321000048612
  0.4848173274358848  0.2430038699203614  0.0097214773353888
  0.4984402304113947  0.2459256781942821  0.4934603070436385
  0.4824717787291455  0.9837889628688975  0.2295835502270360
  0.4933440332892073  1.0130595688019732  0.7460002364525500
  0.5037700889051113  0.4978510715954281  0.2416409373856627
  0.5164236188605728  0.5103079217403147  0.7616265773906622
  0.4943450591055559  0.7421799816475397  0.9917308444525123
  0.4972837385590589  0.7462456426982925  0.5069124221527392
  0.7486431487037725 -0.0147818432676250  0.9970295321570077
  0.7482689949177058  0.9969924809136553  0.4810826062093351
  0.7505356896547936  0.5100473826223276  0.0085910564394445
  0.7680813209036241  0.5038308133875883  0.5162636414784650
  0.7376441210798323  0.2438300917118748  0.2420562682905931
  0.7358048587182964  0.2295584482104377  0.7602350927851108
  0.7548057975619450  0.7486275923318322  0.2504918965296191
  0.7534358071594615  0.7643915975459682  0.7382701193720552
  0.2524479314071782  0.2568324333871490  1.0014302163064330
  0.2546971211340137  0.2423657171918715  0.5076595573338245
  0.2678365471524284  0.0189640844345993  0.2359342765744815
  0.2471324239246993  0.0063188507013440  0.7492455863483984
  0.2464269703800492  0.4986796803216947  0.2393586573883496
  0.2318720284128064  0.4962696169812645  0.7529935025436364
  0.2470936709955650  0.7667569127962206 -0.0081864331366343
  0.2590310594228711  0.7589764022929026  0.4986761669341083
 -0.0098401100479488  0.0142729226370142  0.0089678002048108
  1.0065353503570598  0.0039959208902497  0.4999094237469887
  1.0026731870371861  0.4938254933055989 -0.0095170693324773
 -0.0046002077022683  0.4914326913776292  0.4944381262453936
 -0.0001660150374806  0.2565796207711739  0.2640855388129895
  0.0112987776456051  0.2558516757435941  0.7512397441631451
  0.0040350005397960  0.7635163194726358  0.2369726794129928
  1.0112672945369539  0.7447556359615283  0.7535644154985504
  0.4975181404953938 -0.0095507597448483 -0.0091415960347448
  0.4979771709540366  1.0034619727344822  0.4930702915818133
  0.4818082107335806  0.4955152104886310  1.0100967330209807
  0.4919524197388387  0.4957667035947755  0.5048590376639992
  0.4968272759541605  0.2486765850905010  0.2518563148851073
  0.4968167814808827  0.2631148918893717  0.7576481313881441
  0.4962879765761870  0.7573264970035738  0.2680745958861474
  0.5257997060506004  0.7494876530924658  0.7553341351223869
  0.7611744794555410  0.2572903350208485  1.0008471153930745
  0.7408087904030498  0.2478179664296258  0.4940096826906418
  0.7484664969287915  0.9962414959696059  0.2355049329980238
  0.7457730126967865 -0.0084763913974815  0.7400993587846391
  0.7342064972058081  0.4954687570521221  0.2326912476428021
  0.7585114591121362  0.5076498183929020  0.7485808794663902
  0.7538369658617907  0.7419139611199773  0.0074456541264053
  0.7702174810901654  0.7506881957512156  0.5018269285350438
 
  0.27479393E-02  0.56633990E-03 -0.42404907E-02
 -0.15810476E-02  0.41084633E-03 -0.24869888E-02
 -0.18618336E-02 -0.51013834E-02 -0.16024083E-02
  0.51369118E-03 -0.56716212E-02 -0.26821340E-02
 -0.20585630E-02 -0.39485101E-02  0.36001583E-02
 -0.61910041E-03  0.21363280E-03  0.68888953E-03
  0.26788158E-02 -0.28045896E-03 -0.10631046E-01
  0.49154865E-03  0.66064414E-02  0.14079737E-02
  0.24033109E-02 -0.29738590E-03 -0.63513171E-03
 -0.16284432E-02 -0.16283756E-03  0.16928266E-02
 -0.23182902E-02  0.26868476E-02  0.15760360E-02
  0.15110883E-02  0.16644898E-02  0.13236287E-02
 -0.68743802E-02 -0.72844696E-03  0.16685964E-02
  0.21969328E-02 -0.26638939E-03 -0.57395389E-03
  0.45757604E-02 -0.18116696E-06  0.35715240E-02
  0.12470589E-02 -0.20351659E-02 -0.42129531E-02
 -0.80007186E-03 -0.51223472E-03 -0.38483808E-03
 -0.20151298E-02 -0.20963455E-02  0.19155797E-02
 -0.20884585E-02  0.17554252E-02 -0.10972034E-02
  0.27810922E-03 -0.12151491E-02 -0.39613400E-02
 -0.59744909E-02 -0.10504799E-03 -0.20394386E-02
 -0.99870860E-03  0.54068821E-02  0.15753465E-03
  0.34255619E-02 -0.70501768E-02  0.13302673E-02
  0.49115023E-02 -0.57597289E-02 -0.11616266E-02
 -0.25801417E-03  0.21650414E-02 -0.91957226E-03
 -0.40369213E-03  0.17341186E-02 -0.36827163E-02
 -0.14552765E-02  0.30789608E-02  0.63900239E-03
  0.22159143E-02 -0.34038783E-02  0.60290248E-02
  0.22462286E-02  0.25271680E-02 -0.37061477E-02
  0.19201976E-02 -0.21591672E-02  0.12190452E-02
 -0.17841842E-02 -0.18623417E-02 -0.28240055E-02
 -0.44665979E-02  0.57135328E-02  0.85205987E-03
  0.29449587E-04  0.58196665E-03 -0.71793065E-03
  0.14024370E-02  0.56389497E-02 -0.53906198E-02
 -0.84005676E-03 -0.36166852E-02  0.34341874E-02
 -0.21513033E-02  0.34902271E-02  0.41427651E-02
  0.28825826E-02  0.39903292E-02  0.32766020E-02
  0.72806156E-03 -0.13054130E-03 -0.18939713E-03
 -0.96657515E-03  0.34620847E-02 -0.91586790E-04
  0.57519940E-02  0.63508885E-03 -0.25112622E-02
 -0.14872602E-02 -0.90479861E-02 -0.26169777E-02
  0.35213035E-02  0.46747457E-03  0.52660556E-03
 -0.30153914E-03 -0.31718190E-02 -0.32307180E-02
 -0.25032542E-02  0.69021871E-02  0.39200240E-02
 -0.96891832E-03  0.20809466E-02  0.14604681E-02
  0.17710678E-02  0.33886336E-02  0.36492399E-02
 -0.61820892E-02  0.12102983E-02 -0.19769017E-02
  0.46008940E-02 -0.44425001E-02 -0.24632496E-02
 -0.37765087E-02 -0.47443566E-02  0.45266568E-02
 -0.29881504E-04  0.19064314E-02  0.44941038E-02
 -0.54096450E-02 -0.30453388E-03  0.57744417E-02
  0.62916114E-03  0.56573539E-02  0.48293157E-03
 -0.38940624E-02  0.25875778E-02 -0.54542339E-02
 -0.21969200E-02 -0.81591387E-03  0.37210316E-02
  0.50598585E-02  0.18543226E-02  0.75682291E-04
 -0.51817415E-02  0.17578711E-02  0.26617759E-03
 -0.35333637E-02 -0.36544152E-02 -0.18725013E-02
 -0.49628582E-03  0.17834996E-02  0.34346063E-02
  0.52557659E-02 -0.21782520E-02 -0.12936948E-02
  0.19033675E-02 -0.57788445E-02 -0.14213933E-02
  0.29701400E-03  0.11757050E-02  0.23829261E-02
  0.10432410E-01 -0.72611322E-03  0.19713437E-02
 -0.17501565E-02  0.19434184E-02 -0.32014079E-02
  0.20300542E-02 -0.20680340E-02  0.80900396E-02
 
           1
   1.00000000000000     
 -0.45565467E+00  0.33460154E-02  0.45508969E-02 -0.45960313E+00
  0.23884402E+00  0.10530900E-01  0.99853845E+00
  0.26632980E+00  0.98589610E+00  0.49668185E+00
  0.25038116E+00  0.49707726E+00  0.99775611E+00
  0.26312316E+00  0.47391891E+00  0.51155934E+00
  0.24676499E+00  0.26028682E+00  0.25127796E+00
  0.25400048E+00  0.24355746E+00  0.76011750E+00
  0.26150472E+00  0.72870603E+00  0.23604087E+00
  0.24982023E+00  0.74412872E+00  0.74233079E+00
  0.98182244E+00  0.25645058E+00  0.15230052E-02
  0.99173141E+00  0.26665512E+00  0.49254902E+00
  0.99533841E+00  0.98628488E+00  0.24426761E+00
  0.19055328E-01  0.20096773E-01  0.75724086E+00
  0.98545020E+00  0.48311790E+00  0.24620917E+00
  0.22037451E-02  0.50691920E+00  0.74319214E+00
  0.28595106E-02  0.75542889E+00  0.97992052E+00
  0.57390712E-02  0.76122744E+00  0.49418451E+00
  0.48473228E+00  0.24294945E+00  0.96808796E-02
  0.49822601E+00  0.24570290E+00  0.49366494E+00
  0.48224977E+00  0.98397565E+00  0.22946691E+00
  0.49337360E+00  0.12930384E-01  0.74557939E+00
  0.50313498E+00  0.49784012E+00  0.24142549E+00
  0.51631745E+00  0.51088273E+00  0.76164212E+00
  0.49470921E+00  0.74143040E+00  0.99187336E+00
  0.49780585E+00  0.74563319E+00  0.50678937E+00
  0.74861572E+00  0.98544832E+00  0.99693126E+00
  0.74822608E+00  0.99717684E+00  0.48069075E+00
  0.75038099E+00  0.51037474E+00  0.86584965E-02
  0.76831688E+00  0.50346889E+00  0.51690496E+00
  0.73788290E+00  0.24409866E+00  0.24166113E+00
  0.73600898E+00  0.22932885E+00  0.76036483E+00
  0.75461613E+00  0.74842968E+00  0.25019258E+00
  0.75296099E+00  0.76499913E+00  0.73836018E+00
  0.25245106E+00  0.25689430E+00  0.13537375E-02
  0.25484621E+00  0.24296511E+00  0.50708472E+00
  0.26774725E+00  0.18579645E-01  0.23630048E+00
  0.24690373E+00  0.66899526E-02  0.74968554E+00
  0.24673340E+00  0.49910377E+00  0.23970528E+00
  0.23194942E+00  0.49625571E+00  0.75297324E+00
  0.24699092E+00  0.76712498E+00  0.99180313E+00
  0.25964252E+00  0.75904371E+00  0.49840777E+00
  0.99000179E+00  0.13311137E-01  0.86923174E-02
  0.69096799E-02  0.40454907E-02  0.49996450E+00
  0.26411321E-02  0.49348833E+00  0.99014039E+00
  0.99513369E+00  0.49216651E+00  0.49485358E+00
  0.99973098E+00  0.25680087E+00  0.26424046E+00
  0.11487050E-01  0.25621184E+00  0.75162639E+00
  0.33778182E-02  0.76364520E+00  0.23676358E+00
  0.11756389E-01  0.74428322E+00  0.75330271E+00
  0.49711668E+00  0.98994503E+00  0.99134169E+00
  0.49797399E+00  0.36646354E-02  0.49354754E+00
  0.48123314E+00  0.49548303E+00  0.10711859E-01
  0.49201930E+00  0.49636808E+00  0.50490875E+00
  0.49641332E+00  0.24895179E+00  0.25127669E+00
  0.49658324E+00  0.26302823E+00  0.75804439E+00
  0.49682586E+00  0.75752344E+00  0.26808103E+00
  0.52524886E+00  0.74967471E+00  0.75536312E+00
  0.76079887E+00  0.25690198E+00  0.64980619E-03
  0.74075603E+00  0.24800758E+00  0.49437444E+00
  0.74902521E+00  0.99600975E+00  0.23536682E+00
  0.74597535E+00  0.99090923E+00  0.73994936E+00
  0.73423807E+00  0.49559373E+00  0.23294419E+00
  0.75962047E+00  0.50757226E+00  0.74878832E+00
  0.75365092E+00  0.74212062E+00  0.71052070E-02
  0.77043328E+00  0.75046828E+00  0.50268703E+00
  0.00000000E+00  0.00000000E+00  0.00000000E+00
  0.00000000E+00  0.00000000E+00  0.00000000E+00
  0.00000000E+00  0.00000000E+00  0.00000000E+00
  0.00000000E+00  0.00000000E+00  0.00000000E+00
  0.00000000E+00  0.00000000E+00  0.00000000E+00
  0.00000000E+00  0.00000000E+00  0.00000000E+00
  0.00000000E+00  0.00000000E+00  0.00000000E+00
  0.00000000E+00  0.00000000E+00  0.00000000E+00
  0.00000000E+00  0.00000000E+00  0.00000000E+00
  0.00000000E+00  0.00000000E+00  0.00000000E+00
  0.00000000E+00  0.00000000E+00  0.00000000E+00
  0.00000000E+00  0.00000000E+00  0.00000000E+00
  0.00000000E+00  0.00000000E+00  0.00000000E+00
  0.00000000E+00  0.00000000E+00  0.00000000E+00
  0.00000000E+00  0.00000000E+00  0.00000000E+00
  0.00000000E+00  0.00000000E+00  0.00000000E+00
  0.00000000E+00  0.00000000E+00  0.00000000E+00
  0.00000000E+00  0.00000000E+00  0.00000000E+00
  0.00000000E+00  0.00000000E+00  0.00000000E+00
  0.00000000E+00  0.00000000E+00  0.00000000E+00
  0.00000000E+00  0.00000000E+00  0.00000000E+00
  0.00000000E+00  0.00000000E+00  0.00000000E+00
  0.00000000E+00  0.00000000E+00  0.00000000E+00
  0.00000000E+00  0.00000000E+00  0.00000000E+00
  0.00000000E+00  0.00000000E+00  0.00000000E+00
  0.00000000E+00  0.00000000E+00  0.00000000E+00
  0.00000000E+00  0.00000000E+00  0.00000000E+00
  0.00000000E+00  0.00000000E+00  0.00000000E+00
  0.00000000E+00  0.00000000E+00  0.00000000E+00
  0.00000000E+00  0.00000000E+00  0.00000000E+00
  0.00000000E+00  0.00000000E+00  0.00000000E+00
  0.00000000E+00  0.00000000E+00  0.00000000E+00
  0.00000000E+00  0.00000000E+00  0.00000000E+00
  0.00000000E+00  0.00000000E+00  0.00000000E+00
  0.00000000E+00  0.00000000E+00  0.00000000E+00
  0.00000000E+00  0.00000000E+00  0.00000000E+00
  0.00000000E+00  0.00000000E+00  0.00000000E+00
  0.00000000E+00  0.00000000E+00  0.00000000E+00
  0.00000000E+00  0.00000000E+00  0.00000000E+00
  0.00000000E+00  0.00000000E+00  0.00000000E+00
  0.00000000E+00  0.00000000E+00  0.00000000E+00
  0.00000000E+00  0.00000000E+00  0.00000000E+00
  0.00000000E+00  0.00000000E+00  0.00000000E+00
  0.00000000E+00  0.00000000E+00  0.00000000E+00
  0.00000000E+00  0.00000000E+00  0.00000000E+00
  0.00000000E+00  0.00000000E+00  0.00000000E+00
  0.00000000E+00  0.00000000E+00  0.00000000E+00
  0.00000000E+00  0.00000000E+00  0.00000000E+00
  0.00000000E+00  0.00000000E+00  0.00000000E+00
  0.00000000E+00  0.00000000E+00  0.00000000E+00
  0.00000000E+00  0.00000000E+00  0.00000000E+00
  0.00000000E+00  0.00000000E+00  0.00000000E+00
  0.00000000E+00  0.00000000E+00  0.00000000E+00
  0.00000000E+00  0.00000000E+00  0.00000000E+00
  0.00000000E+00  0.00000000E+00  0.00000000E+00
  0.00000000E+00  0.00000000E+00  0.00000000E+00
  0.00000000E+00  0.00000000E+00  0.00000000E+00
  0.00000000E+00  0.00000000E+00  0.00000000E+00
  0.00000000E+00  0.00000000E+00  0.00000000E+00
  0.00000000E+00  0.00000000E+00  0.00000000E+00
  0.00000000E+00  0.00000000E+00  0.00000000E+00
  0.00000000E+00  0.00000000E+00  0.00000000E+00
  0.00000000E+00  0.00000000E+00  0.00000000E+00
  0.00000000E+00  0.00000000E+00  0.00000000E+00
  0.00000000E+00  0.00000000E+00  0.00000000E+00
  0.00000000E+00  0.00000000E+00  0.00000000E+00
  0.00000000E+00  0.00000000E+00  0.00000000E+00
  0.00000000E+00  0.00000000E+00  0.00000000E+00
  0.00000000E+00  0.00000000E+00  0.00000000E+00
  0.00000000E+00  0.00000000E+00  0.00000000E+00
  0.00000000E+00  0.00000000E+00  0.00000000E+00
  0.00000000E+00  0.00000000E+00  0.00000000E+00
  0.00000000E+00  0.00000000E+00  0.00000000E+00
  0.00000000E+00  0.00000000E+00  0.00000000E+00
  0.00000000E+00  0.00000000E+00  0.00000000E+00
  0.00000000E+00  0.00000000E+00  0.00000000E+00
  0.00000000E+00  0.00000000E+00  0.00000000E+00
  0.00000000E+00  0.00000000E+00  0.00000000E+00
  0.00000000E+00  0.00000000E+00  0.00000000E+00
  0.00000000E+00  0.00000000E+00  0.00000000E+00
  0.00000000E+00  0.00000000E+00  0.00000000E+00
  0.00000000E+00  0.00000000E+00  0.00000000E+00
  0.00000000E+00  0.00000000E+00  0.00000000E+00
  0.00000000E+00  0.00000000E+00  0.00000000E+00
  0.00000000E+00  0.00000000E+00  0.00000000E+00
  0.00000000E+00  0.00000000E+00  0.00000000E+00
  0.00000000E+00  0.00000000E+00  0.00000000E+00
  0.00000000E+00  0.00000000E+00  0.00000000E+00
  0.00000000E+00  0.00000000E+00  0.00000000E+00
  0.00000000E+00  0.00000000E+00  0.00000000E+00
  0.00000000E+00  0.00000000E+00  0.00000000E+00
  0.00000000E+00  0.00000000E+00  0.00000000E+00
  0.00000000E+00  0.00000000E+00  0.00000000E+00
  0.00000000E+00  0.00000000E+00  0.00000000E+00
  0.00000000E+00  0.00000000E+00  0.00000000E+00
  0.00000000E+00  0.00000000E+00  0.00000000E+00
  0.00000000E+00  0.00000000E+00  0.00000000E+00
  0.00000000E+00  0.00000000E+00  0.00000000E+00
  0.00000000E+00  0.00000000E+00  0.00000000E+00
  0.00000000E+00  0.00000000E+00  0.00000000E+00
  0.00000000E+00  0.00000000E+00  0.00000000E+00
  0.00000000E+00  0.00000000E+00  0.00000000E+00
  0.00000000E+00  0.00000000E+00  0.00000000E+00
  0.00000000E+00  0.00000000E+00  0.00000000E+00
  0.00000000E+00  0.00000000E+00  0.00000000E+00
  0.00000000E+00  0.00000000E+00  0.00000000E+00
  0.00000000E+00  0.00000000E+00  0.00000000E+00
  0.00000000E+00  0.00000000E+00  0.00000000E+00
  0.00000000E+00  0.00000000E+00  0.00000000E+00
  0.00000000E+00  0.00000000E+00  0.00000000E+00
  0.00000000E+00  0.00000000E+00  0.00000000E+00
  0.00000000E+00  0.00000000E+00  0.00000000E+00
  0.00000000E+00  0.00000000E+00  0.00000000E+00
  0.00000000E+00  0.00000000E+00  0.00000000E+00
  0.00000000E+00  0.00000000E+00  0.00000000E+00
  0.00000000E+00  0.00000000E+00  0.00000000E+00
  0.00000000E+00  0.00000000E+00  0.00000000E+00
  0.00000000E+00  0.00000000E+00  0.00000000E+00
  0.00000000E+00  0.00000000E+00  0.00000000E+00
  0.00000000E+00  0.00000000E+00  0.00000000E+00
  0.00000000E+00  0.00000000E+00  0.00000000E+00
  0.00000000E+00  0.00000000E+00  0.00000000E+00
  0.00000000E+00  0.00000000E+00  0.00000000E+00
  0.00000000E+00  0.00000000E+00  0.00000000E+00
  0.00000000E+00  0.00000000E+00  0.00000000E+00
  0.00000000E+00  0.00000000E+00  0.00000000E+00
  0.00000000E+00  0.00000000E+00  0.00000000E+00
  0.00000000E+00  0.00000000E+00  0.00000000E+00
