MgF2NPT2x2x3                            
   1.00000000000000     
     9.2444238980900000    0.0000000000000000    0.0000000000000000
     0.0000000000000000    9.2444238980900000    0.0000000000000000
     0.0000000000000000    0.0000000000000000    9.1820558111700006
   Mg   F 
    24    48
Direct
  0.7581950936764009  0.7515219740493287  0.8317036379333747
  0.7483555220939281  0.7408766933137401  0.5057054492367219
  0.7565264902029948  0.7417758784417589  0.1653329839104961
  0.7497422098685490  0.2439544661223878  0.8289542874508292
  0.7449797937118698  0.2577254358564194  0.5078105837277387
  0.7426401731376020  0.2638542430914401  0.1625433352373743
  0.5055150503852933  0.5041766863977341  0.6650874949883795
  0.4811499528804823  0.5054795375237648  0.3349194937426755
  0.4989845930031122  0.4946343874388545  0.0012406266396545
  0.5015443860561293 -0.0059930871999563  0.6662664039019142
  0.5035858364413244  0.9974585708161847  0.3294268050999558
  0.5039067638276880  1.0017910962188286  1.0055613583955185
  0.2504968790891037  0.7508202098119408  0.8313911071348212
  0.2394910328975582  0.7460065371123574  0.5054379764251450
  0.2415611360648093  0.7564824366037840  0.1705939877648204
  0.2628321285277532  0.2510407052356577  0.8319579750158183
  0.2679333098113452  0.2509463947493313  0.5028797249822337
  0.2496126895332134  0.2418834335937756  0.1706138760801201
 -0.0022570002371676  0.4986416555405808  0.6708016841864918
 -0.0004616413856743  0.4905459287320926  0.3258457518484691
  0.0059378517061305  0.5040241526483642  1.0028077578772021
  0.0059030450083240  1.0009928881072931  0.6668011600824816
  0.9946024719032869  1.0008342457962702  0.3373686674630029
  0.9920055022939698  0.0086806027860857 -0.0077212988063706
  0.1052090056148938  0.9076779358388181  0.8325178842831087
  0.1048107183097881  0.9161909990886340  0.5008986220705257
  0.0862994476063160  0.9055271332441770  0.1679260873698284
  0.1130082936399364  0.4044435647484141  0.8376048819980045
  0.0931286705048204  0.4031354362024146  0.4939233033342702
  0.1032246321793776  0.4016246122126568  0.1562262230292064
  0.9001125686754194  0.0902036574121749  0.8264249716910613
  0.9001049842576763  0.1075555049209825  0.5004194777837915
  0.9041227427332365  0.1137818374492126  0.1689449666313288
  0.8964927040360641  0.5815170361469092  0.8397039872201145
  0.9087452844971912  0.6006332480726119  0.5040106636109786
  0.9025629837582806  0.6012381555353418  0.1728627112883403
  0.8501254794319689  0.8429753208534818  0.6747264275715248
  0.8361534798725242  0.8568540732433281  0.3344031938429316
  0.8438412957815243  0.8561023292292078  1.0042995177846952
  0.8429388385368157  0.3538517481554723  0.6697580292519126
  0.8424156729534674  0.3499516413036351  0.3318538171515782
  0.8532884181961506  0.3456889984361620  0.0022111598559918
  0.6441219507324231  0.6584701254402270  0.6599896555331232
  0.6435008040085685  0.6604715869232951  0.3391619830047404
  0.6525401172387139  0.6476558290706131  0.0032667196018531
  0.6633378123439770  0.1333268513037953  0.6644291456256179
  0.6591221369544352  0.1455043159909217  0.3311383730435059
  0.6479454346678030  0.1557073545496555  1.0026093011389379
  0.5973781682943575  0.8982853735999283  0.8246480722213905
  0.6046883654511973  0.8980371663283792  0.5001192035460168
  0.5799611848862537  0.8788597463762947  0.1628381201489775
  0.6016448358986198  0.4048125146982798  0.8288507243976707
  0.5939471585914508  0.4152841487220881  0.4971902320550413
  0.6000596076196428  0.4083182741630362  0.1653282181458643
  0.4053841173916590  0.0826869068095761  0.8311561117184711
  0.4188474882566067  0.0991580281068268  0.4995413899473505
  0.4093370807245506  0.1027309704742676  0.1733590370055665
  0.3874661104432871  0.5901082056426061  0.8278256563281782
  0.3804662294684991  0.5851238119119602  0.4977843091580300
  0.3834429225695561  0.5907320369338694  0.1559562504397841
  0.3488881314875781  0.8404103060251299  0.6692439705387950
  0.3469627904931375  0.8496547604251737  0.3442717076461675
  0.3448466459274394  0.8516960885236695 -0.0121294144162934
  0.3591909034186473  0.3534764506354582  0.6600264080306116
  0.3392924269501950  0.3561224370071176  0.3285794954852003
  0.3622687053622805  0.3402211645761993 -0.0032101429756168
  0.1634315592289707  0.6509897083916343  0.6798020124991353
  0.1445482205522079  0.6474493281062084  0.3273234597705579
  0.1534640512933952  0.6583897659234387  1.0046044682892123
  0.1595199934519154  0.1627634813318026  0.6615525299013639
  0.1579491045456602  0.1480865897940180  0.3444726027535157
  0.1562860341644841  0.1488597007178357  0.9944801545664873
 
 -0.45228316E-02  0.41875484E-02  0.68993636E-03
  0.20683410E-02 -0.65307167E-02 -0.50221101E-02
 -0.43633790E-02 -0.29926310E-03  0.35390375E-03
  0.72110612E-02 -0.44743110E-02  0.13520937E-02
 -0.20404842E-02 -0.74225607E-03 -0.85847873E-03
  0.76113608E-02  0.13519196E-02 -0.27993457E-02
  0.14752067E-03  0.72307974E-02  0.11736682E-03
  0.83726258E-03 -0.52672390E-02  0.10447444E-02
  0.22494095E-02 -0.17814519E-02  0.11838306E-04
  0.19909557E-02  0.26057075E-02 -0.32279644E-02
  0.28529296E-03  0.23140941E-03  0.23267158E-02
  0.21083338E-02  0.52703606E-02  0.14597145E-02
  0.36352031E-02  0.34909940E-02  0.29180423E-02
 -0.39185390E-02 -0.32800790E-02 -0.22856122E-02
 -0.10669183E-02  0.26512893E-02  0.24683089E-02
 -0.38168992E-02  0.24605762E-02  0.26879468E-02
  0.23925192E-02  0.11168488E-02 -0.16153810E-02
 -0.23153262E-02 -0.30123461E-02 -0.12597224E-02
  0.80327863E-03  0.33626949E-03  0.90888183E-04
  0.32442149E-02 -0.41760362E-04 -0.17816187E-03
 -0.32725796E-03 -0.30280290E-02 -0.16270260E-02
  0.16770199E-02 -0.37651267E-02  0.35834905E-02
 -0.11880462E-02  0.39143333E-02  0.66484229E-02
 -0.42173443E-02 -0.96560250E-03 -0.28930443E-03
  0.30414289E-02  0.34114064E-02  0.94405174E-03
 -0.28845146E-03  0.45632651E-02 -0.50255906E-03
  0.25524530E-02  0.32110109E-02 -0.34532335E-02
 -0.24466290E-02  0.40400531E-02  0.31404266E-02
  0.23575298E-02  0.71111700E-03  0.52608393E-02
  0.34461795E-02  0.35830858E-02 -0.41630228E-02
 -0.48723134E-02  0.23852053E-03  0.21560961E-02
  0.56397651E-02 -0.46522320E-02 -0.95030238E-02
  0.47335731E-02  0.35126606E-03 -0.56579809E-02
 -0.66793588E-02 -0.27857637E-02 -0.47775426E-02
  0.24237028E-02  0.58384848E-02  0.38539496E-02
 -0.13941849E-04  0.26481079E-03 -0.52913676E-02
 -0.61066163E-02  0.54371033E-02 -0.29164655E-02
 -0.91921862E-02  0.64509379E-02 -0.41963976E-02
 -0.85487047E-02 -0.46242535E-02 -0.45006593E-02
 -0.29479572E-02 -0.18486052E-02  0.19688400E-02
 -0.52588058E-03  0.19091310E-02  0.27145481E-02
  0.70136404E-02  0.10880373E-02  0.25751732E-02
  0.37705861E-02  0.17070625E-02  0.13288596E-02
 -0.71928070E-03 -0.65838916E-02 -0.11817064E-02
  0.61323805E-02  0.15052458E-02  0.22839130E-02
 -0.24814732E-05 -0.13149343E-02  0.18868587E-02
  0.81867860E-03  0.41385518E-02 -0.21349015E-02
  0.18573536E-02 -0.20782185E-02 -0.32801948E-02
 -0.58851154E-02  0.16576217E-02 -0.59891405E-02
 -0.40596858E-03 -0.34423777E-02  0.73607753E-03
  0.70158982E-03 -0.16267999E-02  0.73020708E-02
  0.21586680E-02 -0.41000901E-02  0.24266883E-02
  0.20801040E-02 -0.36074261E-03  0.51359452E-02
 -0.25467863E-02 -0.18954950E-02 -0.54217371E-03
  0.12291093E-02  0.44673822E-02  0.46922374E-02
 -0.12619413E-02  0.81000799E-03  0.49855195E-02
 -0.16075896E-02  0.39781172E-03 -0.21019543E-02
 -0.58180569E-02  0.54795131E-02 -0.44750629E-03
  0.14186262E-02 -0.37918824E-02  0.59854267E-02
 -0.19494419E-02 -0.35902775E-02 -0.26526321E-02
 -0.10921477E-02  0.45509184E-02  0.17123497E-02
  0.17573903E-02 -0.35225977E-02 -0.25227305E-02
  0.42766860E-02  0.28808069E-02  0.98528966E-03
  0.11012792E-02 -0.41926997E-02 -0.29158686E-03
  0.67671183E-03  0.97275618E-03 -0.15490347E-02
 -0.47859969E-02 -0.50551150E-02 -0.17905703E-02
  0.36084817E-02 -0.75278587E-02 -0.37376981E-02
  0.86029316E-03 -0.21301303E-02  0.64178806E-03
  0.40647002E-03 -0.37810634E-02  0.22516302E-02
 -0.25659223E-02 -0.47637349E-02 -0.74272527E-04
 -0.67160142E-02 -0.11321949E-02  0.69391138E-03
  0.20611805E-02  0.30115004E-02 -0.83541173E-03
 
           1
   1.00000000000000     
 -0.50676181E+00 -0.87526749E-02 -0.88582527E-02 -0.49795634E+00
  0.75770584E+00  0.75197496E+00  0.83177878E+00
  0.74857926E+00  0.74017024E+00  0.50515850E+00
  0.75605449E+00  0.74174351E+00  0.16537153E+00
  0.75052225E+00  0.24347047E+00  0.82910154E+00
  0.74475907E+00  0.25764514E+00  0.50771709E+00
  0.74346352E+00  0.26400048E+00  0.16223846E+00
  0.50553101E+00  0.50495887E+00  0.66510028E+00
  0.48124052E+00  0.50490976E+00  0.33503327E+00
  0.49922792E+00  0.49444168E+00  0.12419159E-02
  0.50175975E+00  0.99428878E+00  0.66591485E+00
  0.50361670E+00  0.99748360E+00  0.32968020E+00
  0.50413483E+00  0.23612086E-02  0.57203331E-02
  0.25089011E+00  0.75119784E+00  0.83170891E+00
  0.23906715E+00  0.74565172E+00  0.50518905E+00
  0.24144572E+00  0.75676924E+00  0.17086281E+00
  0.26241924E+00  0.25130687E+00  0.83225071E+00
  0.26819212E+00  0.25106721E+00  0.50270380E+00
  0.24936223E+00  0.24155758E+00  0.17047668E+00
  0.99782989E+00  0.49867803E+00  0.67081158E+00
  0.99988930E+00  0.49054141E+00  0.32582635E+00
  0.59024511E-02  0.50369660E+00  0.26305616E-02
  0.60844538E-02  0.58560187E-03  0.66719143E+00
  0.99447396E+00  0.12576722E-02  0.33809273E+00
  0.99154930E+00  0.85761504E-02  0.99224719E+00
  0.10553801E+00  0.90804696E+00  0.83262070E+00
  0.10477952E+00  0.91668462E+00  0.50084389E+00
  0.86575555E-01  0.90587448E+00  0.16755000E+00
  0.11274363E+00  0.40488059E+00  0.83794690E+00
  0.93383692E-01  0.40321236E+00  0.49449625E+00
  0.10359742E+00  0.40201221E+00  0.15577284E+00
  0.89958551E+00  0.90229459E-01  0.82665979E+00
  0.90071506E+00  0.10705226E+00  0.49938452E+00
  0.90463479E+00  0.11381984E+00  0.16832877E+00
  0.89577018E+00  0.58121569E+00  0.83918367E+00
  0.90900746E+00  0.60126482E+00  0.50443039E+00
  0.90256148E+00  0.60126680E+00  0.17228644E+00
  0.84946491E+00  0.84356347E+00  0.67440880E+00
  0.83515913E+00  0.85755189E+00  0.33394617E+00
  0.84291655E+00  0.85560211E+00  0.38093597E-02
  0.84261995E+00  0.35365178E+00  0.66997245E+00
  0.84235879E+00  0.35015816E+00  0.33214945E+00
  0.85404711E+00  0.34580670E+00  0.24916170E-02
  0.64452983E+00  0.65865478E+00  0.66013438E+00
  0.64342300E+00  0.65975939E+00  0.33903329E+00
  0.65320348E+00  0.64781866E+00  0.35154562E-02
  0.66333754E+00  0.13318461E+00  0.66463464E+00
  0.65921070E+00  0.14595200E+00  0.33090587E+00
  0.64814635E+00  0.15548255E+00  0.22520614E-02
  0.59674156E+00  0.89846468E+00  0.82399581E+00
  0.60464445E+00  0.89766479E+00  0.50019937E+00
  0.58003708E+00  0.87868377E+00  0.16363337E+00
  0.60187835E+00  0.40436899E+00  0.82911501E+00
  0.59417217E+00  0.41524513E+00  0.49774958E+00
  0.59978411E+00  0.40811323E+00  0.16526917E+00
  0.40551707E+00  0.83170158E-01  0.83166713E+00
  0.41871098E+00  0.99245649E-01  0.50008435E+00
  0.40916318E+00  0.10277400E+00  0.17313012E+00
  0.38683675E+00  0.59070094E+00  0.82777692E+00
  0.38061969E+00  0.58471363E+00  0.49843617E+00
  0.38323204E+00  0.59034366E+00  0.15566736E+00
  0.34876999E+00  0.84090259E+00  0.66943046E+00
  0.34715289E+00  0.84927371E+00  0.34399696E+00
  0.34530927E+00  0.85200771E+00  0.98797789E+00
  0.35931003E+00  0.35302291E+00  0.65999465E+00
  0.33936563E+00  0.35622766E+00  0.32841079E+00
  0.36175099E+00  0.33967434E+00  0.99659485E+00
  0.16382190E+00  0.65017539E+00  0.67939495E+00
  0.14464128E+00  0.64721890E+00  0.32739336E+00
  0.15350802E+00  0.65798076E+00  0.48496890E-02
  0.15924243E+00  0.16224817E+00  0.66154444E+00
  0.15722261E+00  0.14796412E+00  0.34454818E+00
  0.15650900E+00  0.14918546E+00  0.99438917E+00
  0.00000000E+00  0.00000000E+00  0.00000000E+00
  0.00000000E+00  0.00000000E+00  0.00000000E+00
  0.00000000E+00  0.00000000E+00  0.00000000E+00
  0.00000000E+00  0.00000000E+00  0.00000000E+00
  0.00000000E+00  0.00000000E+00  0.00000000E+00
  0.00000000E+00  0.00000000E+00  0.00000000E+00
  0.00000000E+00  0.00000000E+00  0.00000000E+00
  0.00000000E+00  0.00000000E+00  0.00000000E+00
  0.00000000E+00  0.00000000E+00  0.00000000E+00
  0.00000000E+00  0.00000000E+00  0.00000000E+00
  0.00000000E+00  0.00000000E+00  0.00000000E+00
  0.00000000E+00  0.00000000E+00  0.00000000E+00
  0.00000000E+00  0.00000000E+00  0.00000000E+00
  0.00000000E+00  0.00000000E+00  0.00000000E+00
  0.00000000E+00  0.00000000E+00  0.00000000E+00
  0.00000000E+00  0.00000000E+00  0.00000000E+00
  0.00000000E+00  0.00000000E+00  0.00000000E+00
  0.00000000E+00  0.00000000E+00  0.00000000E+00
  0.00000000E+00  0.00000000E+00  0.00000000E+00
  0.00000000E+00  0.00000000E+00  0.00000000E+00
  0.00000000E+00  0.00000000E+00  0.00000000E+00
  0.00000000E+00  0.00000000E+00  0.00000000E+00
  0.00000000E+00  0.00000000E+00  0.00000000E+00
  0.00000000E+00  0.00000000E+00  0.00000000E+00
  0.00000000E+00  0.00000000E+00  0.00000000E+00
  0.00000000E+00  0.00000000E+00  0.00000000E+00
  0.00000000E+00  0.00000000E+00  0.00000000E+00
  0.00000000E+00  0.00000000E+00  0.00000000E+00
  0.00000000E+00  0.00000000E+00  0.00000000E+00
  0.00000000E+00  0.00000000E+00  0.00000000E+00
  0.00000000E+00  0.00000000E+00  0.00000000E+00
  0.00000000E+00  0.00000000E+00  0.00000000E+00
  0.00000000E+00  0.00000000E+00  0.00000000E+00
  0.00000000E+00  0.00000000E+00  0.00000000E+00
  0.00000000E+00  0.00000000E+00  0.00000000E+00
  0.00000000E+00  0.00000000E+00  0.00000000E+00
  0.00000000E+00  0.00000000E+00  0.00000000E+00
  0.00000000E+00  0.00000000E+00  0.00000000E+00
  0.00000000E+00  0.00000000E+00  0.00000000E+00
  0.00000000E+00  0.00000000E+00  0.00000000E+00
  0.00000000E+00  0.00000000E+00  0.00000000E+00
  0.00000000E+00  0.00000000E+00  0.00000000E+00
  0.00000000E+00  0.00000000E+00  0.00000000E+00
  0.00000000E+00  0.00000000E+00  0.00000000E+00
  0.00000000E+00  0.00000000E+00  0.00000000E+00
  0.00000000E+00  0.00000000E+00  0.00000000E+00
  0.00000000E+00  0.00000000E+00  0.00000000E+00
  0.00000000E+00  0.00000000E+00  0.00000000E+00
  0.00000000E+00  0.00000000E+00  0.00000000E+00
  0.00000000E+00  0.00000000E+00  0.00000000E+00
  0.00000000E+00  0.00000000E+00  0.00000000E+00
  0.00000000E+00  0.00000000E+00  0.00000000E+00
  0.00000000E+00  0.00000000E+00  0.00000000E+00
  0.00000000E+00  0.00000000E+00  0.00000000E+00
  0.00000000E+00  0.00000000E+00  0.00000000E+00
  0.00000000E+00  0.00000000E+00  0.00000000E+00
  0.00000000E+00  0.00000000E+00  0.00000000E+00
  0.00000000E+00  0.00000000E+00  0.00000000E+00
  0.00000000E+00  0.00000000E+00  0.00000000E+00
  0.00000000E+00  0.00000000E+00  0.00000000E+00
  0.00000000E+00  0.00000000E+00  0.00000000E+00
  0.00000000E+00  0.00000000E+00  0.00000000E+00
  0.00000000E+00  0.00000000E+00  0.00000000E+00
  0.00000000E+00  0.00000000E+00  0.00000000E+00
  0.00000000E+00  0.00000000E+00  0.00000000E+00
  0.00000000E+00  0.00000000E+00  0.00000000E+00
  0.00000000E+00  0.00000000E+00  0.00000000E+00
  0.00000000E+00  0.00000000E+00  0.00000000E+00
  0.00000000E+00  0.00000000E+00  0.00000000E+00
  0.00000000E+00  0.00000000E+00  0.00000000E+00
  0.00000000E+00  0.00000000E+00  0.00000000E+00
  0.00000000E+00  0.00000000E+00  0.00000000E+00
  0.00000000E+00  0.00000000E+00  0.00000000E+00
  0.00000000E+00  0.00000000E+00  0.00000000E+00
  0.00000000E+00  0.00000000E+00  0.00000000E+00
  0.00000000E+00  0.00000000E+00  0.00000000E+00
  0.00000000E+00  0.00000000E+00  0.00000000E+00
  0.00000000E+00  0.00000000E+00  0.00000000E+00
  0.00000000E+00  0.00000000E+00  0.00000000E+00
  0.00000000E+00  0.00000000E+00  0.00000000E+00
  0.00000000E+00  0.00000000E+00  0.00000000E+00
  0.00000000E+00  0.00000000E+00  0.00000000E+00
  0.00000000E+00  0.00000000E+00  0.00000000E+00
  0.00000000E+00  0.00000000E+00  0.00000000E+00
  0.00000000E+00  0.00000000E+00  0.00000000E+00
  0.00000000E+00  0.00000000E+00  0.00000000E+00
  0.00000000E+00  0.00000000E+00  0.00000000E+00
  0.00000000E+00  0.00000000E+00  0.00000000E+00
  0.00000000E+00  0.00000000E+00  0.00000000E+00
  0.00000000E+00  0.00000000E+00  0.00000000E+00
  0.00000000E+00  0.00000000E+00  0.00000000E+00
  0.00000000E+00  0.00000000E+00  0.00000000E+00
  0.00000000E+00  0.00000000E+00  0.00000000E+00
  0.00000000E+00  0.00000000E+00  0.00000000E+00
  0.00000000E+00  0.00000000E+00  0.00000000E+00
  0.00000000E+00  0.00000000E+00  0.00000000E+00
  0.00000000E+00  0.00000000E+00  0.00000000E+00
  0.00000000E+00  0.00000000E+00  0.00000000E+00
  0.00000000E+00  0.00000000E+00  0.00000000E+00
  0.00000000E+00  0.00000000E+00  0.00000000E+00
  0.00000000E+00  0.00000000E+00  0.00000000E+00
  0.00000000E+00  0.00000000E+00  0.00000000E+00
  0.00000000E+00  0.00000000E+00  0.00000000E+00
  0.00000000E+00  0.00000000E+00  0.00000000E+00
  0.00000000E+00  0.00000000E+00  0.00000000E+00
  0.00000000E+00  0.00000000E+00  0.00000000E+00
  0.00000000E+00  0.00000000E+00  0.00000000E+00
  0.00000000E+00  0.00000000E+00  0.00000000E+00
  0.00000000E+00  0.00000000E+00  0.00000000E+00
  0.00000000E+00  0.00000000E+00  0.00000000E+00
  0.00000000E+00  0.00000000E+00  0.00000000E+00
  0.00000000E+00  0.00000000E+00  0.00000000E+00
  0.00000000E+00  0.00000000E+00  0.00000000E+00
  0.00000000E+00  0.00000000E+00  0.00000000E+00
  0.00000000E+00  0.00000000E+00  0.00000000E+00
  0.00000000E+00  0.00000000E+00  0.00000000E+00
  0.00000000E+00  0.00000000E+00  0.00000000E+00
  0.00000000E+00  0.00000000E+00  0.00000000E+00
  0.00000000E+00  0.00000000E+00  0.00000000E+00
  0.00000000E+00  0.00000000E+00  0.00000000E+00
  0.00000000E+00  0.00000000E+00  0.00000000E+00
  0.00000000E+00  0.00000000E+00  0.00000000E+00
  0.00000000E+00  0.00000000E+00  0.00000000E+00
  0.00000000E+00  0.00000000E+00  0.00000000E+00
  0.00000000E+00  0.00000000E+00  0.00000000E+00
  0.00000000E+00  0.00000000E+00  0.00000000E+00
  0.00000000E+00  0.00000000E+00  0.00000000E+00
  0.00000000E+00  0.00000000E+00  0.00000000E+00
  0.00000000E+00  0.00000000E+00  0.00000000E+00
  0.00000000E+00  0.00000000E+00  0.00000000E+00
  0.00000000E+00  0.00000000E+00  0.00000000E+00
  0.00000000E+00  0.00000000E+00  0.00000000E+00
  0.00000000E+00  0.00000000E+00  0.00000000E+00
  0.00000000E+00  0.00000000E+00  0.00000000E+00
  0.00000000E+00  0.00000000E+00  0.00000000E+00
  0.00000000E+00  0.00000000E+00  0.00000000E+00
  0.00000000E+00  0.00000000E+00  0.00000000E+00
  0.00000000E+00  0.00000000E+00  0.00000000E+00
  0.00000000E+00  0.00000000E+00  0.00000000E+00
  0.00000000E+00  0.00000000E+00  0.00000000E+00
  0.00000000E+00  0.00000000E+00  0.00000000E+00
  0.00000000E+00  0.00000000E+00  0.00000000E+00
  0.00000000E+00  0.00000000E+00  0.00000000E+00
  0.00000000E+00  0.00000000E+00  0.00000000E+00
