Zn2 F4                                  
   1.00000000000000     
     9.5679995346000002    0.0000000000000000    0.0000000000000000
     0.0000000000000000    9.5679995346000002    0.0000000000000000
     0.0000000000000000    0.0000000000000000    9.6039145660000003
   Zn   F 
    24    48
Direct
  0.2487411243662918  0.2523951076458130  0.1632268418715710
  0.2449334987932205  0.2405958362277705  0.4978049678607412
  0.2635379193601700  0.2548344676008761  0.8389135001022172
  0.2555412482341606  0.7553116400961268  0.1748293237000960
  0.2485126368832724  0.7449261487488488  0.5081415257103943
  0.2517006956876919  0.7408675020432901  0.8387243878921957
  0.7426295087976795  0.2458291139869365  0.1603481079803288
  0.7592444211559795  0.2567482981629852  0.4994091022845896
  0.7533232576445665  0.2420678107286303  0.8227030630873570
  0.7435715286211690  0.7392398062226816  0.1756452842216457
  0.7474954724874500  0.7617687600257188  0.4863798271806150
  0.7403809916021707  0.7319091811968377  0.8284908696761357
  0.9806447375779358  0.9999539957556829  0.9912785219939555
  0.0100775426959331  0.9952493558998705  0.3192501023151735
  0.0074740971008540  0.9892377519813296  0.6644982320167614
  1.0048783512891277  0.5034733786513034  0.0143800653866999
  0.9924962958916758  0.5063837209901433  0.3324004424077016
 -0.0026942772726524  0.5138539370320152  0.6636119485670327
  0.5049106983253131  0.9928683588232391  0.9918236998007596
  0.4981508236414768  1.0215270681421236  0.3219522749822693
  0.4979302845804502 -0.0039574017014059  0.6588407447870185
  0.5003170838339602  0.5028323033765372  0.0064947630195978
  0.4910251254841968  0.4904208533906687  0.3405832725660165
  0.5090115062744514  0.4977719751624927  0.6725877436043999
  0.3466007626131317  0.3561893769752695  0.0166090507137542
  0.3358368080628182  0.3528201890608751  0.3385617080499388
  0.3534872935943073  0.3477572151223810  0.6735051555796128
  0.3523384216350872  0.8389956850338915  1.0043958679442133
  0.3308208026345291  0.8470368200808783  0.3447743354862504
  0.3414608786482514  0.8546286891550305  0.6806861831653740
  0.8522699940782861  0.3562205277027976 -0.0138412886598465
  0.8538861433138506  0.3428124284557947  0.3200114779085824
  0.8642538214046384  0.3330904097101349  0.6610541909391596
  0.8425561471550833  0.8365526642200126 -0.0081762562870263
  0.8600269920386128  0.8548694394771238  0.3221896163861837
  0.8456454893391154  0.8469244092014521  0.6637110241261307
  0.4171730057622220  0.1151129313769473  0.1584414718332610
  0.4112928674968567  0.1014161414168949  0.4891504307777788
  0.4289617886246139  0.1159897185702941  0.8456076932423769
  0.4003476287021995  0.5980292897333569  0.1709333310237150
  0.3858499853280643  0.5929189989892693  0.5147755542095803
  0.4025847292260953  0.6002468451646235  0.8256913859483516
  0.8896214244327845  0.1049685422057672  0.1615231114679722
  0.9074735942879724  0.1047317983090492  0.5084496453194268
  0.9082518227656285  0.0986785890336005  0.8203091441861615
  0.8979182494130342  0.6048731721499246  0.1740576491480321
  0.8972308092070757  0.6047310058779506  0.4984450025645381
  0.9068733672732736  0.6066590630684960  0.8251060853384669
  0.1400485238889681  0.1575812008650898  1.0111980076846963
  0.1673671165460583  0.1390145733558961  0.3377874580440411
  0.1615460705782968  0.1439412320922589  0.6735552579803094
  0.1509098322716746  0.6610220737323712  0.0062264870079607
  0.1485043218488957  0.6355910391038248  0.3519487130828928
  0.1464531262484587  0.6636122026230795  0.6625326014901638
  0.6655444782119989  0.1453371428601259  0.9910759599149940
  0.6533638246992172  0.1677407381439648  0.3336884237617351
  0.6273043039778784  0.1634417986751079  0.6660026704086310
  0.6679330244949547  0.6213865519731548  1.0093725344825444
  0.6576373030964245  0.6491020325258178  0.3409253869742287
  0.6272442324899674  0.6776597870233961  0.6763709300230394
  0.1051577426485847  0.3994795014535669  0.1775887279770662
  0.0845971714565208  0.3925584862718123  0.5041767397272038
  0.1132950688819769  0.4109469531572984  0.8550409620026967
  0.0884414931149289  0.8936560915902043  0.1545651274293118
  0.1026487704222049  0.9018101118768576  0.5034980446444667
  0.0793524903329658  0.8845081669910547  0.8446822393985506
  0.6021236947423853  0.4058443423242142  0.1699733710310617
  0.6115713843935844  0.4199570798623708  0.5004172156655425
  0.5988968265976030  0.4169891651430572  0.8390318034391563
  0.6033091480841726  0.9169398482129579  0.1716391019757653
  0.5832039462812251  0.8984326228490507  0.4900468434535803
  0.6020037619564593  0.8994242091484158  0.8279622127733461
 
  0.17742351E-02 -0.85989507E-05  0.81708106E-03
  0.42058854E-03 -0.11303424E-02  0.16377209E-02
 -0.26729686E-02 -0.51427829E-03 -0.10940768E-02
 -0.38981427E-02 -0.12365172E-02 -0.89095929E-03
  0.51303966E-02 -0.11859464E-02 -0.10803621E-02
 -0.41833917E-03 -0.11409767E-02  0.45937250E-02
 -0.10420467E-02  0.24407333E-02 -0.11540954E-02
 -0.95375227E-03 -0.26332958E-02 -0.96362841E-03
 -0.34587277E-02 -0.26281165E-02 -0.17276272E-03
 -0.43577690E-02 -0.22421270E-04 -0.86833596E-03
 -0.56393794E-03 -0.18976525E-02 -0.34834890E-02
  0.20476646E-03  0.12885150E-02  0.22042171E-02
  0.89516129E-03 -0.81264142E-03 -0.35446227E-02
 -0.59294766E-03 -0.24776453E-03  0.16308316E-02
  0.21721834E-02  0.31277296E-03 -0.20624409E-03
  0.20672972E-02 -0.32773591E-03 -0.16432029E-02
  0.59897341E-03  0.29771191E-02 -0.16354294E-02
  0.78743652E-03  0.82472980E-03 -0.11449779E-02
  0.14126491E-02  0.26867908E-02  0.12801926E-02
  0.68618038E-02  0.35024786E-02 -0.45394568E-03
 -0.16098682E-02  0.27046085E-02  0.88097643E-03
 -0.22379352E-02 -0.13288471E-04  0.26564109E-02
 -0.35470324E-02 -0.21069012E-04 -0.21444516E-02
 -0.14120735E-02  0.83559486E-03  0.17625216E-02
  0.32652968E-02  0.33740073E-02 -0.37039375E-03
 -0.32232510E-02  0.47641643E-02 -0.55711826E-02
  0.94870451E-03  0.36592795E-03  0.74211400E-02
  0.42882356E-02  0.17399739E-02 -0.25872043E-02
 -0.81347579E-03 -0.43718699E-03  0.54380205E-02
 -0.15367708E-02  0.17401417E-02 -0.20253744E-02
  0.21661947E-02  0.69894988E-02  0.38641247E-02
  0.52153697E-02 -0.11441916E-01 -0.28798267E-02
 -0.29791522E-02 -0.39436278E-02  0.68187154E-02
 -0.49113762E-03 -0.59029253E-02 -0.12861985E-02
  0.43630706E-02 -0.33918001E-03  0.67546409E-03
  0.49556172E-04  0.54826136E-02  0.60236644E-03
 -0.87105331E-03 -0.50175081E-02  0.74109311E-03
  0.39430766E-02 -0.57934018E-02  0.39028041E-02
 -0.25446596E-03  0.19189568E-02 -0.20393928E-02
  0.13360787E-02 -0.58052686E-02  0.10387231E-04
  0.37995208E-03  0.54666261E-03  0.16116704E-02
  0.34205616E-02 -0.25020084E-02 -0.52910937E-02
  0.24169567E-02 -0.42978495E-02  0.40646254E-02
 -0.76470565E-02 -0.23152037E-02 -0.29084441E-02
  0.47422957E-02 -0.36733331E-02 -0.90595909E-03
 -0.79832324E-04  0.50116115E-02 -0.34917546E-02
 -0.27872501E-02 -0.23938367E-02 -0.16807681E-02
  0.31712100E-02  0.43314170E-02  0.40124210E-03
  0.10891411E-02 -0.13847206E-02 -0.61209962E-03
  0.37120734E-02  0.15299740E-02 -0.50639240E-02
  0.47142152E-02  0.72844305E-02 -0.50056288E-02
 -0.65964620E-03  0.48494752E-02  0.52392183E-02
 -0.23697573E-02  0.20638676E-02  0.17381344E-04
 -0.11228653E-03  0.31093448E-02 -0.31447628E-02
  0.14753870E-04 -0.35059958E-02  0.71175623E-02
  0.12993398E-02 -0.29272036E-03 -0.30535471E-02
 -0.45774211E-03 -0.10686396E-02  0.25866346E-02
 -0.12606458E-02  0.60755240E-03 -0.38317276E-02
 -0.54870792E-02 -0.31814256E-02  0.12730319E-02
 -0.13562945E-02 -0.32578278E-03  0.23317288E-02
  0.16285501E-02  0.93058981E-03  0.63828925E-02
  0.48043741E-02  0.50813459E-02 -0.42317968E-02
  0.77200163E-03 -0.52646166E-02 -0.27478480E-02
 -0.29237657E-02  0.79940153E-04  0.93953649E-02
  0.16788683E-02 -0.28541709E-03 -0.22550811E-02
  0.32793085E-02 -0.50683252E-02 -0.23555638E-03
 -0.49350700E-02 -0.56810472E-03  0.43955160E-02
  0.27298024E-02  0.57117183E-02 -0.19446689E-02
  0.27874235E-03 -0.34917714E-02  0.13767599E-02
 -0.67504740E-02 -0.17058246E-02 -0.17717835E-03
 -0.10725090E-02  0.10387932E-02  0.12358641E-03
 -0.23566247E-02 -0.14619821E-02 -0.20659024E-02
 
           1
   1.00000000000000     
  0.10368655E+00  0.13064825E-01  0.12255791E-01  0.91026245E-01
  0.24892656E+00  0.25239421E+00  0.16331192E+00
  0.24497746E+00  0.24047770E+00  0.49797549E+00
  0.26325855E+00  0.25478072E+00  0.83879958E+00
  0.25513383E+00  0.75518241E+00  0.17473655E+00
  0.24904884E+00  0.74480220E+00  0.50802903E+00
  0.25165697E+00  0.74074825E+00  0.83920271E+00
  0.74252060E+00  0.24608421E+00  0.16022794E+00
  0.75914474E+00  0.25647308E+00  0.49930877E+00
  0.75296177E+00  0.24179313E+00  0.82268507E+00
  0.74311608E+00  0.73923746E+00  0.17555487E+00
  0.74743653E+00  0.76157043E+00  0.48601711E+00
  0.74040239E+00  0.73204385E+00  0.82872038E+00
  0.98073830E+00  0.99986906E+00  0.99090944E+00
  0.10015571E-01  0.99522346E+00  0.31941991E+00
  0.77011230E-02  0.98927044E+00  0.66447676E+00
  0.50944150E-02  0.50343913E+00  0.14208968E-01
  0.99255890E+00  0.50669487E+00  0.33223015E+00
  0.99738802E+00  0.51394013E+00  0.66349273E+00
  0.50505834E+00  0.99314917E+00  0.99195700E+00
  0.49886799E+00  0.21893130E-01  0.32190501E+00
  0.49776203E+00  0.99632527E+00  0.65893248E+00
  0.50008319E+00  0.50283091E+00  0.67713597E-02
  0.49065441E+00  0.49041865E+00  0.34035998E+00
  0.50886392E+00  0.49785931E+00  0.67277126E+00
  0.34694204E+00  0.35654201E+00  0.16570484E-01
  0.33549993E+00  0.35331812E+00  0.33798161E+00
  0.35358645E+00  0.34779546E+00  0.67427788E+00
  0.35278661E+00  0.83917754E+00  0.41264773E-02
  0.33073578E+00  0.84699113E+00  0.34534057E+00
  0.34130026E+00  0.85481056E+00  0.68047529E+00
  0.85249639E+00  0.35695104E+00  0.98656106E+00
  0.85443123E+00  0.34161658E+00  0.31971162E+00
  0.86394246E+00  0.33267824E+00  0.66176418E+00
  0.84250482E+00  0.83593572E+00  0.99168982E+00
  0.86048300E+00  0.85483399E+00  0.32225995E+00
  0.84565067E+00  0.84749742E+00  0.66377375E+00
  0.41708197E+00  0.11458853E+00  0.15851864E+00
  0.41170498E+00  0.10081064E+00  0.48955681E+00
  0.42893519E+00  0.11619028E+00  0.84539534E+00
  0.40048727E+00  0.59742255E+00  0.17093441E+00
  0.38588970E+00  0.59297613E+00  0.51494337E+00
  0.40294223E+00  0.59998535E+00  0.82514046E+00
  0.88987403E+00  0.10451935E+00  0.16194634E+00
  0.90667436E+00  0.10448982E+00  0.50814681E+00
  0.90874746E+00  0.98294670E-01  0.82021481E+00
  0.89790991E+00  0.60539696E+00  0.17369407E+00
  0.89693950E+00  0.60448081E+00  0.49826999E+00
  0.90720481E+00  0.60711176E+00  0.82514786E+00
  0.14016236E+00  0.15743648E+00  0.11134273E-01
  0.16775508E+00  0.13917448E+00  0.33726018E+00
  0.16203878E+00  0.14470256E+00  0.67303405E+00
  0.15084089E+00  0.66152892E+00  0.67720165E-02
  0.14825665E+00  0.63580674E+00  0.35195052E+00
  0.14644139E+00  0.66393718E+00  0.66220516E+00
  0.66554602E+00  0.14497071E+00  0.99181707E+00
  0.65349963E+00  0.16771014E+00  0.33337048E+00
  0.62725646E+00  0.16333011E+00  0.66627200E+00
  0.66780127E+00  0.62145005E+00  0.89735589E-02
  0.65706382E+00  0.64876953E+00  0.34105794E+00
  0.62710248E+00  0.67762574E+00  0.67661372E+00
  0.10532795E+00  0.39957676E+00  0.17825334E+00
  0.85099301E-01  0.39308956E+00  0.50373611E+00
  0.11337575E+00  0.41039672E+00  0.85475484E+00
  0.88135916E-01  0.89366445E+00  0.15554341E+00
  0.10282424E+00  0.90178028E+00  0.50326324E+00
  0.79695227E-01  0.88397845E+00  0.84465771E+00
  0.60160791E+00  0.40578497E+00  0.17043105E+00
  0.61185669E+00  0.42055404E+00  0.50021473E+00
  0.59892596E+00  0.41662422E+00  0.83917516E+00
  0.60260362E+00  0.91676156E+00  0.17162065E+00
  0.58309185E+00  0.89854119E+00  0.49005971E+00
  0.60175746E+00  0.89927141E+00  0.82774710E+00
  0.00000000E+00  0.00000000E+00  0.00000000E+00
  0.00000000E+00  0.00000000E+00  0.00000000E+00
  0.00000000E+00  0.00000000E+00  0.00000000E+00
  0.00000000E+00  0.00000000E+00  0.00000000E+00
  0.00000000E+00  0.00000000E+00  0.00000000E+00
  0.00000000E+00  0.00000000E+00  0.00000000E+00
  0.00000000E+00  0.00000000E+00  0.00000000E+00
  0.00000000E+00  0.00000000E+00  0.00000000E+00
  0.00000000E+00  0.00000000E+00  0.00000000E+00
  0.00000000E+00  0.00000000E+00  0.00000000E+00
  0.00000000E+00  0.00000000E+00  0.00000000E+00
  0.00000000E+00  0.00000000E+00  0.00000000E+00
  0.00000000E+00  0.00000000E+00  0.00000000E+00
  0.00000000E+00  0.00000000E+00  0.00000000E+00
  0.00000000E+00  0.00000000E+00  0.00000000E+00
  0.00000000E+00  0.00000000E+00  0.00000000E+00
  0.00000000E+00  0.00000000E+00  0.00000000E+00
  0.00000000E+00  0.00000000E+00  0.00000000E+00
  0.00000000E+00  0.00000000E+00  0.00000000E+00
  0.00000000E+00  0.00000000E+00  0.00000000E+00
  0.00000000E+00  0.00000000E+00  0.00000000E+00
  0.00000000E+00  0.00000000E+00  0.00000000E+00
  0.00000000E+00  0.00000000E+00  0.00000000E+00
  0.00000000E+00  0.00000000E+00  0.00000000E+00
  0.00000000E+00  0.00000000E+00  0.00000000E+00
  0.00000000E+00  0.00000000E+00  0.00000000E+00
  0.00000000E+00  0.00000000E+00  0.00000000E+00
  0.00000000E+00  0.00000000E+00  0.00000000E+00
  0.00000000E+00  0.00000000E+00  0.00000000E+00
  0.00000000E+00  0.00000000E+00  0.00000000E+00
  0.00000000E+00  0.00000000E+00  0.00000000E+00
  0.00000000E+00  0.00000000E+00  0.00000000E+00
  0.00000000E+00  0.00000000E+00  0.00000000E+00
  0.00000000E+00  0.00000000E+00  0.00000000E+00
  0.00000000E+00  0.00000000E+00  0.00000000E+00
  0.00000000E+00  0.00000000E+00  0.00000000E+00
  0.00000000E+00  0.00000000E+00  0.00000000E+00
  0.00000000E+00  0.00000000E+00  0.00000000E+00
  0.00000000E+00  0.00000000E+00  0.00000000E+00
  0.00000000E+00  0.00000000E+00  0.00000000E+00
  0.00000000E+00  0.00000000E+00  0.00000000E+00
  0.00000000E+00  0.00000000E+00  0.00000000E+00
  0.00000000E+00  0.00000000E+00  0.00000000E+00
  0.00000000E+00  0.00000000E+00  0.00000000E+00
  0.00000000E+00  0.00000000E+00  0.00000000E+00
  0.00000000E+00  0.00000000E+00  0.00000000E+00
  0.00000000E+00  0.00000000E+00  0.00000000E+00
  0.00000000E+00  0.00000000E+00  0.00000000E+00
  0.00000000E+00  0.00000000E+00  0.00000000E+00
  0.00000000E+00  0.00000000E+00  0.00000000E+00
  0.00000000E+00  0.00000000E+00  0.00000000E+00
  0.00000000E+00  0.00000000E+00  0.00000000E+00
  0.00000000E+00  0.00000000E+00  0.00000000E+00
  0.00000000E+00  0.00000000E+00  0.00000000E+00
  0.00000000E+00  0.00000000E+00  0.00000000E+00
  0.00000000E+00  0.00000000E+00  0.00000000E+00
  0.00000000E+00  0.00000000E+00  0.00000000E+00
  0.00000000E+00  0.00000000E+00  0.00000000E+00
  0.00000000E+00  0.00000000E+00  0.00000000E+00
  0.00000000E+00  0.00000000E+00  0.00000000E+00
  0.00000000E+00  0.00000000E+00  0.00000000E+00
  0.00000000E+00  0.00000000E+00  0.00000000E+00
  0.00000000E+00  0.00000000E+00  0.00000000E+00
  0.00000000E+00  0.00000000E+00  0.00000000E+00
  0.00000000E+00  0.00000000E+00  0.00000000E+00
  0.00000000E+00  0.00000000E+00  0.00000000E+00
  0.00000000E+00  0.00000000E+00  0.00000000E+00
  0.00000000E+00  0.00000000E+00  0.00000000E+00
  0.00000000E+00  0.00000000E+00  0.00000000E+00
  0.00000000E+00  0.00000000E+00  0.00000000E+00
  0.00000000E+00  0.00000000E+00  0.00000000E+00
  0.00000000E+00  0.00000000E+00  0.00000000E+00
  0.00000000E+00  0.00000000E+00  0.00000000E+00
  0.00000000E+00  0.00000000E+00  0.00000000E+00
  0.00000000E+00  0.00000000E+00  0.00000000E+00
  0.00000000E+00  0.00000000E+00  0.00000000E+00
  0.00000000E+00  0.00000000E+00  0.00000000E+00
  0.00000000E+00  0.00000000E+00  0.00000000E+00
  0.00000000E+00  0.00000000E+00  0.00000000E+00
  0.00000000E+00  0.00000000E+00  0.00000000E+00
  0.00000000E+00  0.00000000E+00  0.00000000E+00
  0.00000000E+00  0.00000000E+00  0.00000000E+00
  0.00000000E+00  0.00000000E+00  0.00000000E+00
  0.00000000E+00  0.00000000E+00  0.00000000E+00
  0.00000000E+00  0.00000000E+00  0.00000000E+00
  0.00000000E+00  0.00000000E+00  0.00000000E+00
  0.00000000E+00  0.00000000E+00  0.00000000E+00
  0.00000000E+00  0.00000000E+00  0.00000000E+00
  0.00000000E+00  0.00000000E+00  0.00000000E+00
  0.00000000E+00  0.00000000E+00  0.00000000E+00
  0.00000000E+00  0.00000000E+00  0.00000000E+00
  0.00000000E+00  0.00000000E+00  0.00000000E+00
  0.00000000E+00  0.00000000E+00  0.00000000E+00
  0.00000000E+00  0.00000000E+00  0.00000000E+00
  0.00000000E+00  0.00000000E+00  0.00000000E+00
  0.00000000E+00  0.00000000E+00  0.00000000E+00
  0.00000000E+00  0.00000000E+00  0.00000000E+00
  0.00000000E+00  0.00000000E+00  0.00000000E+00
  0.00000000E+00  0.00000000E+00  0.00000000E+00
  0.00000000E+00  0.00000000E+00  0.00000000E+00
  0.00000000E+00  0.00000000E+00  0.00000000E+00
  0.00000000E+00  0.00000000E+00  0.00000000E+00
  0.00000000E+00  0.00000000E+00  0.00000000E+00
  0.00000000E+00  0.00000000E+00  0.00000000E+00
  0.00000000E+00  0.00000000E+00  0.00000000E+00
  0.00000000E+00  0.00000000E+00  0.00000000E+00
  0.00000000E+00  0.00000000E+00  0.00000000E+00
  0.00000000E+00  0.00000000E+00  0.00000000E+00
  0.00000000E+00  0.00000000E+00  0.00000000E+00
  0.00000000E+00  0.00000000E+00  0.00000000E+00
  0.00000000E+00  0.00000000E+00  0.00000000E+00
  0.00000000E+00  0.00000000E+00  0.00000000E+00
  0.00000000E+00  0.00000000E+00  0.00000000E+00
  0.00000000E+00  0.00000000E+00  0.00000000E+00
  0.00000000E+00  0.00000000E+00  0.00000000E+00
  0.00000000E+00  0.00000000E+00  0.00000000E+00
  0.00000000E+00  0.00000000E+00  0.00000000E+00
  0.00000000E+00  0.00000000E+00  0.00000000E+00
  0.00000000E+00  0.00000000E+00  0.00000000E+00
  0.00000000E+00  0.00000000E+00  0.00000000E+00
  0.00000000E+00  0.00000000E+00  0.00000000E+00
  0.00000000E+00  0.00000000E+00  0.00000000E+00
  0.00000000E+00  0.00000000E+00  0.00000000E+00
  0.00000000E+00  0.00000000E+00  0.00000000E+00
  0.00000000E+00  0.00000000E+00  0.00000000E+00
  0.00000000E+00  0.00000000E+00  0.00000000E+00
  0.00000000E+00  0.00000000E+00  0.00000000E+00
  0.00000000E+00  0.00000000E+00  0.00000000E+00
  0.00000000E+00  0.00000000E+00  0.00000000E+00
  0.00000000E+00  0.00000000E+00  0.00000000E+00
  0.00000000E+00  0.00000000E+00  0.00000000E+00
  0.00000000E+00  0.00000000E+00  0.00000000E+00
  0.00000000E+00  0.00000000E+00  0.00000000E+00
  0.00000000E+00  0.00000000E+00  0.00000000E+00
  0.00000000E+00  0.00000000E+00  0.00000000E+00
  0.00000000E+00  0.00000000E+00  0.00000000E+00
  0.00000000E+00  0.00000000E+00  0.00000000E+00
  0.00000000E+00  0.00000000E+00  0.00000000E+00
  0.00000000E+00  0.00000000E+00  0.00000000E+00
  0.00000000E+00  0.00000000E+00  0.00000000E+00
  0.00000000E+00  0.00000000E+00  0.00000000E+00
  0.00000000E+00  0.00000000E+00  0.00000000E+00
  0.00000000E+00  0.00000000E+00  0.00000000E+00
  0.00000000E+00  0.00000000E+00  0.00000000E+00
