CaF2optimization                        
   1.00000000000000     
    10.9489999999999998    0.0000000000000000    0.0000000000000000
     0.0000000000000000   10.9493369999999999    0.0000000000000000
     0.0000000000000000    0.0000000000000000   10.9493371100000001
   Ca   F 
    32    64
Direct
  0.0193226543647948  0.0215343735355233  0.0120221687193955
  0.0144543169847780  0.2679258414411398  0.2608997478534273
  0.2647640496420227  0.0195100218171491  0.2535895738027290
  0.2609489145622215  0.2651372156314587  0.0088857005661350
  0.0122570283403012  0.0148214262982389  0.5131245859485197
  0.0110899215419561  0.2732944363535151  0.7702003809700428
  0.2713485878428578  0.0175453230054784  0.7647470145231460
  0.2616363534371501  0.2586226369096222  0.5136000119447406
  0.0234036109143724  0.5203288048608885  0.0195687903731332
  0.0228513169635290  0.7674629549894282  0.2636457844388204
  0.2705648799827398  0.5050933891317042  0.2614756093016935
  0.2725558554834476  0.7668439071821636  0.0265794838638156
  0.0116249295364095  0.5069588584571442  0.5153505653141648
  0.0165350914451142  0.7606068561189264  0.7646985919533706
  0.2653512954687040  0.5239787787031298  0.7614939636944994
  0.2657805559826845  0.7655816729489582  0.5153984606633094
  0.5188405092267034  0.0162841371338698  0.0038949794126708
  0.5174234782597489  0.2574234117735831  0.2647928752284629
  0.7755938178589824  0.0160874572357025  0.2580643188043695
  0.7630020409601358  0.2636268299879588  0.0154810510980703
  0.5201180585821867  0.0079709479868494  0.5168938541063380
  0.5088216794400150  0.2658880307200350  0.7678578663819309
  0.7709865112579388  0.0143594671211407  0.7498502027706896
  0.7633784825646237  0.2678173541955374  0.5183539409478268
  0.5099877555767924  0.5089347825635250  0.0301757571722854
  0.5195786644891124  0.7606983935243605  0.2660669096034649
  0.7616610540218397  0.5170047975567982  0.2664818763750508
  0.7709851491758557  0.7656198233614701  0.0093253504141078
  0.5077668555352058  0.5152607700233650  0.5152479492167447
  0.5096471827684865  0.7666275111729630  0.7745424298904738
  0.7554122595129878  0.5143723906390479  0.7707563671530543
  0.7668206340223348  0.7565215636457822  0.5166361542875054
  0.1380180187889335  0.1440328608693761  0.1369208337319717
  0.3797958215052128  0.3860138094148705  0.1338913431504379
  0.3998858314728690  0.1298500693454496  0.3912200280908681
  0.1396683015032588  0.3852715710719273  0.3928325132381572
  0.1485773069087645  0.1388594290968241  0.3780169367317628
  0.3823090729093878  0.3797640539023452  0.3929951571060781
  0.1397623994177326  0.3856773715665293  0.1356493206947310
  0.3882776899024627  0.1522615271874978  0.1341243121028532
  0.1467801635252535  0.1306202914449042  0.6370080362985019
  0.3887637443430396  0.3894113840433055  0.6301962751555814
  0.3921371867136274  0.1445835274624408  0.9010055950818303
  0.1297358076081749  0.3905756347916269  0.8872815484355697
  0.1414621040335221  0.1443026851870196  0.8828413534847297
  0.3806080712993599  0.3915885327706614  0.8757865829698918
  0.1429971787693556  0.3894511515130110  0.6324482935495548
  0.3804586599138205  0.1474367707593400  0.6415255706101548
  0.1451824460763516  0.6475568783461658  0.1461449576332622
  0.4097208493306835  0.8969482400926563  0.1204068375975095
  0.3853117517605785  0.6371280478312309  0.3874052081726795
  0.1346180381669367  0.8927910832415619  0.3862701214058335
  0.1296853762084200  0.6374336962438704  0.3929737776484211
  0.3767715294973461  0.8827997093024166  0.3845297792790145
  0.1507541847403269  0.8884806101413001  0.1444875769795821
  0.3908636821277481  0.6444045894433326  0.1476162246874229
  0.1404048857074372  0.6384975637551205  0.6403198243946974
  0.3920888238550499  0.8934330729559020  0.6370498870543356
  0.3933732400702899  0.6404406157010586  0.8986984634392324
  0.1375758333073381  0.8932426236969591  0.8983782138282779
  0.1480537675487762  0.6353806683336712  0.8949572651667962
  0.3883541580844663  0.8926604350814783  0.8811418185079473
  0.1390168935369363  0.8809737978879251  0.6382394160296700
  0.3913553827491927  0.6479931023703572  0.6441675496396688
  0.6302812379575407  0.1410580320399161  0.1449336570580782
  0.8822310505296135  0.3894915353395599  0.1385737174051584
  0.9019751939105449  0.1441241561254750  0.3924314745405093
  0.6287303327158124  0.3815320239119281  0.3984725509512238
  0.6520416633404132  0.1315263440043888  0.3847755764219854
  0.8850605861670097  0.3911700479064875  0.3871491793203699
  0.6201337589360231  0.4053953631046403  0.1533632859232131
  0.8852669407024778  0.1494274078359106  0.1305830240293344
  0.6336695517037116  0.1218345263318434  0.6392619959425554
  0.8865402667114523  0.3835132039944738  0.6398448520558627
  0.8919478390578800  0.1352883689253893  0.8889048223253531
  0.6248411054967878  0.3973689144037962  0.9057646173154175
  0.6445291938536619  0.1395165905967142  0.8884704282170955
  0.8641539598193979  0.3818418032600736  0.8829388575366350
  0.6441883321545220  0.3743134754805199  0.6542943723997608
  0.8921331996299046  0.1461102492743631  0.6438313249718299
  0.6380733560246945  0.6442289468463793  0.1433639591406726
  0.9003222650697685  0.8914216362630968  0.1280831958928059
  0.8799242356104262  0.6310510130716317  0.3968660076048020
  0.6265104273828741  0.8846853793283774  0.3920059182935392
  0.6345079786479171  0.6429439651904068  0.3980657521417891
  0.8898494516142296  0.8914959493688818  0.3840952034647560
  0.6413655451597569  0.8942230644961991  0.1441135518543276
  0.8913021654775313  0.6413267490348186  0.1445454111683402
  0.6243946836458277  0.6295827486125775  0.6534159959917971
  0.8941050683726722  0.8908928333401113  0.6278246438216103
  0.8954262981605534  0.6365668430323593  0.8886201739040267
  0.6323571562521410  0.8947230321873783  0.8850979865246479
  0.6492787088842102  0.6493350562252388  0.9035915446576825
  0.8858485369950146  0.8988200332348388  0.8811726899496877
  0.6440672826702258  0.8846218182741694  0.6340195548248555
  0.8854890296120984  0.6269722144576212  0.6508742244522830
 
 -0.26714202E-02  0.11328033E-02  0.67633897E-03
  0.63091544E-03  0.29002706E-02  0.19260584E-03
  0.26539285E-04 -0.26855877E-02  0.23653853E-02
 -0.18156242E-03 -0.68822425E-03 -0.52368003E-04
 -0.20733266E-02  0.35232008E-02  0.24048871E-02
 -0.41233550E-03  0.94039838E-03  0.14864674E-04
 -0.28653809E-03 -0.65954018E-03 -0.72482859E-03
  0.15200784E-02  0.10116993E-02  0.11426583E-03
  0.33533810E-02 -0.48178809E-03  0.21142743E-02
  0.23238722E-02  0.48097815E-03  0.24743790E-03
  0.11013268E-02  0.17586168E-03 -0.24666478E-03
  0.45644980E-02  0.48116599E-03 -0.34299748E-02
  0.61080978E-02  0.16501347E-02  0.41698682E-02
  0.32524483E-02  0.20605495E-02 -0.51133672E-03
 -0.32303846E-03  0.21689898E-02 -0.50847661E-03
  0.12103096E-02  0.21419636E-02 -0.40140032E-02
 -0.33415092E-02 -0.27579877E-04  0.12482589E-03
 -0.23736799E-02  0.21085106E-03 -0.26123382E-03
 -0.18112820E-02  0.75099757E-03  0.81904376E-03
  0.22044644E-02  0.55023914E-02 -0.11921871E-02
 -0.29413513E-02  0.18381055E-02  0.15047105E-02
 -0.12375587E-02  0.56055167E-03  0.62409144E-03
 -0.41774989E-03  0.21400370E-02  0.35495268E-03
  0.67938663E-03 -0.88464387E-03 -0.40813729E-02
  0.15004320E-02  0.77156514E-03 -0.13694183E-02
  0.19385240E-02  0.26989683E-02 -0.14684084E-02
 -0.45938426E-02 -0.48466205E-03 -0.40221174E-02
 -0.34716168E-04 -0.29516437E-02  0.62712466E-03
 -0.24860821E-02 -0.10598807E-02 -0.25177967E-02
 -0.21541454E-02 -0.18901785E-03  0.42915421E-02
 -0.13569543E-02 -0.16787585E-02 -0.31091932E-02
  0.61349084E-03  0.17759224E-02 -0.91771868E-03
  0.42863529E-02 -0.45279100E-02  0.66778941E-02
 -0.15345978E-02 -0.58111820E-02 -0.49899989E-02
 -0.42979818E-02  0.36516708E-02 -0.11571132E-03
  0.31600038E-03  0.25557322E-02 -0.70408157E-02
  0.40798105E-02  0.13059566E-02  0.42996773E-03
  0.43738938E-02 -0.19208209E-02  0.34049401E-02
  0.65927238E-03 -0.32041411E-04 -0.19408875E-02
 -0.38115107E-03 -0.13115750E-02 -0.85082845E-03
  0.18044956E-02 -0.71738833E-02  0.36252173E-02
 -0.14650282E-02 -0.27469701E-02 -0.71615024E-03
 -0.21432468E-02  0.47468485E-02  0.88462040E-03
 -0.14240438E-02  0.13956455E-02  0.88205254E-02
  0.76808452E-03  0.61421666E-02 -0.13371804E-02
  0.55084355E-02 -0.88837939E-02  0.21259422E-02
  0.10848176E-03 -0.11767245E-02 -0.72211551E-03
  0.36827703E-02 -0.70242151E-02 -0.23875067E-02
 -0.42775918E-03 -0.25839515E-02  0.32369128E-02
  0.22671806E-02 -0.60213883E-02  0.34737457E-02
  0.37102945E-02  0.45659669E-02  0.22647213E-02
  0.20087499E-02  0.25330388E-02 -0.24990173E-03
 -0.23613561E-02 -0.25115352E-02 -0.67434348E-03
 -0.19137408E-03  0.13653900E-02  0.45136235E-02
 -0.73273393E-04 -0.38549417E-02 -0.17133744E-02
  0.15570899E-02 -0.61491746E-02 -0.82450111E-03
  0.18861106E-02 -0.21989726E-02 -0.16655622E-02
 -0.31378927E-02  0.10497330E-02 -0.28383010E-02
  0.42147538E-03  0.21590622E-02 -0.84223868E-03
  0.57841185E-02 -0.77735122E-03  0.44477868E-02
  0.23333173E-02  0.79234496E-03  0.28625163E-02
 -0.14734272E-02 -0.49711149E-02  0.25597885E-03
  0.17129104E-02 -0.72520102E-02 -0.26846042E-02
  0.29848526E-02  0.49285031E-02  0.21041725E-02
 -0.10067486E-02  0.43679464E-02 -0.26841834E-02
 -0.39053008E-02 -0.35697033E-02  0.25874959E-02
  0.35844171E-02  0.47134981E-02 -0.36476402E-02
  0.22246484E-02  0.17036446E-02  0.11303382E-02
 -0.45487601E-03 -0.16062779E-02  0.15363480E-02
 -0.30216574E-02 -0.61151711E-02  0.36240571E-02
 -0.37638053E-02 -0.46541385E-02  0.12962969E-02
 -0.19570816E-02 -0.39754313E-02  0.52198833E-02
 -0.16362861E-02 -0.16165224E-02 -0.64611233E-03
 -0.27935336E-03 -0.22210527E-03  0.20465219E-02
 -0.18726339E-02  0.81190683E-03 -0.22740461E-02
 -0.34707339E-02  0.39935013E-02 -0.32506435E-02
 -0.70155971E-02  0.38226828E-02  0.17127188E-02
  0.44700438E-03  0.26122951E-02  0.15425384E-02
 -0.27223771E-03 -0.99698922E-03 -0.67131047E-03
 -0.10915205E-02  0.43019523E-03 -0.50121177E-02
  0.70763637E-03  0.26884082E-02 -0.29217062E-02
  0.17342371E-02  0.16968138E-02 -0.16305904E-02
 -0.25090386E-02  0.31544945E-02  0.40923423E-02
 -0.10232120E-02  0.49208099E-02 -0.17300168E-03
 -0.22279419E-02 -0.63441423E-02  0.19455672E-02
 -0.44765192E-02 -0.78200675E-02 -0.21279083E-02
  0.63637211E-04 -0.89297719E-03 -0.19680081E-02
 -0.11790455E-02 -0.73086838E-02 -0.25298167E-02
  0.14811611E-02 -0.41730868E-02  0.12730114E-02
 -0.10909953E-02  0.17149025E-02 -0.24173252E-02
  0.26877408E-02  0.14369244E-02  0.23582086E-02
  0.50036857E-03  0.14316290E-02 -0.58895756E-07
 -0.38972223E-02  0.70633014E-02  0.12626561E-02
 -0.41458010E-02 -0.63620143E-02 -0.12400616E-02
  0.66286694E-03  0.28634456E-02 -0.90226790E-03
 -0.55438282E-04 -0.28181481E-02  0.13487415E-02
 
           1
  0.500000000000000     
  0.22205079E+01 -0.11594400E-04  0.18048517E-04  0.22205047E+01
  0.19200661E-01  0.21586103E-01  0.12053054E-01
  0.14483129E-01  0.26805828E+00  0.26090854E+00
  0.26476526E+00  0.19387385E-01  0.25369759E+00
  0.26094062E+00  0.26510579E+00  0.88833092E-02
  0.12162347E-01  0.14982313E-01  0.51323440E+00
  0.11071092E-01  0.27333738E+00  0.77020106E+00
  0.27133550E+00  0.17515205E-01  0.76471392E+00
  0.26170577E+00  0.25866884E+00  0.51360523E+00
  0.23556747E-01  0.52030680E+00  0.19665338E-01
  0.22957440E-01  0.76748492E+00  0.26365708E+00
  0.27061517E+00  0.50510142E+00  0.26146435E+00
  0.27276430E+00  0.76686588E+00  0.26422855E-01
  0.11903864E-01  0.50703421E+00  0.51554098E+00
  0.16683619E-01  0.76070095E+00  0.76467524E+00
  0.26533654E+00  0.52407783E+00  0.76147074E+00
  0.26583583E+00  0.76567949E+00  0.51521516E+00
  0.51868791E+00  0.16282878E-01  0.39006796E-02
  0.51731508E+00  0.25743304E+00  0.26478095E+00
  0.77551110E+00  0.16121751E-01  0.25810172E+00
  0.76310271E+00  0.26387810E+00  0.15426610E-01
  0.51998374E+00  0.80548848E-02  0.51696257E+00
  0.50876516E+00  0.26591363E+00  0.76788637E+00
  0.77096743E+00  0.14457192E-01  0.74986641E+00
  0.76340951E+00  0.26777696E+00  0.51816757E+00
  0.51005627E+00  0.50897002E+00  0.30113223E-01
  0.51966719E+00  0.76082164E+00  0.26599985E+00
  0.76145127E+00  0.51698267E+00  0.26629821E+00
  0.77098356E+00  0.76548504E+00  0.93539880E-02
  0.50765333E+00  0.51521237E+00  0.51513297E+00
  0.50954881E+00  0.76661888E+00  0.77473840E+00
  0.75535029E+00  0.51429573E+00  0.77061439E+00
  0.76684865E+00  0.75660266E+00  0.51659425E+00
  0.13821376E+00  0.14382609E+00  0.13722578E+00
  0.37972574E+00  0.38574844E+00  0.13366348E+00
  0.39968956E+00  0.13001682E+00  0.39121474E+00
  0.13968273E+00  0.38538828E+00  0.39251100E+00
  0.14876362E+00  0.13891907E+00  0.37803657E+00
  0.38250881E+00  0.37967634E+00  0.39315064E+00
  0.13979251E+00  0.38567591E+00  0.13556069E+00
  0.38826028E+00  0.15220163E+00  0.13408546E+00
  0.14686257E+00  0.13029270E+00  0.63717358E+00
  0.38869684E+00  0.38928594E+00  0.63016357E+00
  0.39203931E+00  0.14480029E+00  0.90104599E+00
  0.12967078E+00  0.39063937E+00  0.88768434E+00
  0.14149718E+00  0.14458317E+00  0.88278029E+00
  0.38085962E+00  0.39118286E+00  0.87588366E+00
  0.14300213E+00  0.38939742E+00  0.63241532E+00
  0.38062684E+00  0.14711601E+00  0.64141655E+00
  0.14516291E+00  0.64743888E+00  0.14629277E+00
  0.40982438E+00  0.89667327E+00  0.12056547E+00
  0.38548119E+00  0.63733655E+00  0.38750863E+00
  0.13470977E+00  0.89290675E+00  0.38625871E+00
  0.12957754E+00  0.63731901E+00  0.39294298E+00
  0.37676279E+00  0.88286206E+00  0.38473589E+00
  0.15075084E+00  0.88830457E+00  0.14440934E+00
  0.39093479E+00  0.64412379E+00  0.14757857E+00
  0.14049102E+00  0.63839715E+00  0.64024377E+00
  0.39194553E+00  0.89348101E+00  0.63692028E+00
  0.39339249E+00  0.64053921E+00  0.89866000E+00
  0.13783997E+00  0.89320713E+00  0.89858132E+00
  0.14816032E+00  0.63541685E+00  0.89508798E+00
  0.38828687E+00  0.89243343E+00  0.88115351E+00
  0.13909512E+00  0.88064264E+00  0.63811682E+00
  0.39149169E+00  0.64821816E+00  0.64426364E+00
  0.63023526E+00  0.14125749E+00  0.14481108E+00
  0.88205271E+00  0.38932853E+00  0.13869188E+00
  0.90213888E+00  0.14433940E+00  0.39226491E+00
  0.62883192E+00  0.38160982E+00  0.39852417E+00
  0.65202089E+00  0.13145299E+00  0.38484573E+00
  0.88492260E+00  0.39089080E+00  0.38731467E+00
  0.61996188E+00  0.40518283E+00  0.15342248E+00
  0.88517757E+00  0.14924587E+00  0.13082139E+00
  0.63359483E+00  0.12176071E+00  0.63923249E+00
  0.88652751E+00  0.38350306E+00  0.63993831E+00
  0.89186232E+00  0.13532544E+00  0.88880098E+00
  0.62468261E+00  0.39755128E+00  0.90561618E+00
  0.64420882E+00  0.13969115E+00  0.88854864E+00
  0.86417437E+00  0.38196109E+00  0.88300930E+00
  0.64417590E+00  0.37426795E+00  0.65426372E+00
  0.89208335E+00  0.14612989E+00  0.64360245E+00
  0.63810567E+00  0.64435171E+00  0.14323054E+00
  0.90040146E+00  0.89149912E+00  0.12800874E+00
  0.87980966E+00  0.63119506E+00  0.39705288E+00
  0.62646370E+00  0.88491009E+00  0.39199802E+00
  0.63440624E+00  0.64265426E+00  0.39815460E+00
  0.88964503E+00  0.89113885E+00  0.38399803E+00
  0.64136845E+00  0.89418229E+00  0.14402368E+00
  0.89124832E+00  0.64099300E+00  0.14442989E+00
  0.62446232E+00  0.62939219E+00  0.65347413E+00
  0.89405525E+00  0.89097114E+00  0.62771426E+00
  0.89554904E+00  0.63663246E+00  0.88872786E+00
  0.63238001E+00  0.89478841E+00  0.88509798E+00
  0.64910074E+00  0.64965760E+00  0.90364920E+00
  0.88565921E+00  0.89852951E+00  0.88111606E+00
  0.64409755E+00  0.88475258E+00  0.63397835E+00
  0.88548650E+00  0.62684352E+00  0.65093581E+00
  0.00000000E+00  0.00000000E+00  0.00000000E+00
  0.00000000E+00  0.00000000E+00  0.00000000E+00
  0.00000000E+00  0.00000000E+00  0.00000000E+00
  0.00000000E+00  0.00000000E+00  0.00000000E+00
  0.00000000E+00  0.00000000E+00  0.00000000E+00
  0.00000000E+00  0.00000000E+00  0.00000000E+00
  0.00000000E+00  0.00000000E+00  0.00000000E+00
  0.00000000E+00  0.00000000E+00  0.00000000E+00
  0.00000000E+00  0.00000000E+00  0.00000000E+00
  0.00000000E+00  0.00000000E+00  0.00000000E+00
  0.00000000E+00  0.00000000E+00  0.00000000E+00
  0.00000000E+00  0.00000000E+00  0.00000000E+00
  0.00000000E+00  0.00000000E+00  0.00000000E+00
  0.00000000E+00  0.00000000E+00  0.00000000E+00
  0.00000000E+00  0.00000000E+00  0.00000000E+00
  0.00000000E+00  0.00000000E+00  0.00000000E+00
  0.00000000E+00  0.00000000E+00  0.00000000E+00
  0.00000000E+00  0.00000000E+00  0.00000000E+00
  0.00000000E+00  0.00000000E+00  0.00000000E+00
  0.00000000E+00  0.00000000E+00  0.00000000E+00
  0.00000000E+00  0.00000000E+00  0.00000000E+00
  0.00000000E+00  0.00000000E+00  0.00000000E+00
  0.00000000E+00  0.00000000E+00  0.00000000E+00
  0.00000000E+00  0.00000000E+00  0.00000000E+00
  0.00000000E+00  0.00000000E+00  0.00000000E+00
  0.00000000E+00  0.00000000E+00  0.00000000E+00
  0.00000000E+00  0.00000000E+00  0.00000000E+00
  0.00000000E+00  0.00000000E+00  0.00000000E+00
  0.00000000E+00  0.00000000E+00  0.00000000E+00
  0.00000000E+00  0.00000000E+00  0.00000000E+00
  0.00000000E+00  0.00000000E+00  0.00000000E+00
  0.00000000E+00  0.00000000E+00  0.00000000E+00
  0.00000000E+00  0.00000000E+00  0.00000000E+00
  0.00000000E+00  0.00000000E+00  0.00000000E+00
  0.00000000E+00  0.00000000E+00  0.00000000E+00
  0.00000000E+00  0.00000000E+00  0.00000000E+00
  0.00000000E+00  0.00000000E+00  0.00000000E+00
  0.00000000E+00  0.00000000E+00  0.00000000E+00
  0.00000000E+00  0.00000000E+00  0.00000000E+00
  0.00000000E+00  0.00000000E+00  0.00000000E+00
  0.00000000E+00  0.00000000E+00  0.00000000E+00
  0.00000000E+00  0.00000000E+00  0.00000000E+00
  0.00000000E+00  0.00000000E+00  0.00000000E+00
  0.00000000E+00  0.00000000E+00  0.00000000E+00
  0.00000000E+00  0.00000000E+00  0.00000000E+00
  0.00000000E+00  0.00000000E+00  0.00000000E+00
  0.00000000E+00  0.00000000E+00  0.00000000E+00
  0.00000000E+00  0.00000000E+00  0.00000000E+00
  0.00000000E+00  0.00000000E+00  0.00000000E+00
  0.00000000E+00  0.00000000E+00  0.00000000E+00
  0.00000000E+00  0.00000000E+00  0.00000000E+00
  0.00000000E+00  0.00000000E+00  0.00000000E+00
  0.00000000E+00  0.00000000E+00  0.00000000E+00
  0.00000000E+00  0.00000000E+00  0.00000000E+00
  0.00000000E+00  0.00000000E+00  0.00000000E+00
  0.00000000E+00  0.00000000E+00  0.00000000E+00
  0.00000000E+00  0.00000000E+00  0.00000000E+00
  0.00000000E+00  0.00000000E+00  0.00000000E+00
  0.00000000E+00  0.00000000E+00  0.00000000E+00
  0.00000000E+00  0.00000000E+00  0.00000000E+00
  0.00000000E+00  0.00000000E+00  0.00000000E+00
  0.00000000E+00  0.00000000E+00  0.00000000E+00
  0.00000000E+00  0.00000000E+00  0.00000000E+00
  0.00000000E+00  0.00000000E+00  0.00000000E+00
  0.00000000E+00  0.00000000E+00  0.00000000E+00
  0.00000000E+00  0.00000000E+00  0.00000000E+00
  0.00000000E+00  0.00000000E+00  0.00000000E+00
  0.00000000E+00  0.00000000E+00  0.00000000E+00
  0.00000000E+00  0.00000000E+00  0.00000000E+00
  0.00000000E+00  0.00000000E+00  0.00000000E+00
  0.00000000E+00  0.00000000E+00  0.00000000E+00
  0.00000000E+00  0.00000000E+00  0.00000000E+00
  0.00000000E+00  0.00000000E+00  0.00000000E+00
  0.00000000E+00  0.00000000E+00  0.00000000E+00
  0.00000000E+00  0.00000000E+00  0.00000000E+00
  0.00000000E+00  0.00000000E+00  0.00000000E+00
  0.00000000E+00  0.00000000E+00  0.00000000E+00
  0.00000000E+00  0.00000000E+00  0.00000000E+00
  0.00000000E+00  0.00000000E+00  0.00000000E+00
  0.00000000E+00  0.00000000E+00  0.00000000E+00
  0.00000000E+00  0.00000000E+00  0.00000000E+00
  0.00000000E+00  0.00000000E+00  0.00000000E+00
  0.00000000E+00  0.00000000E+00  0.00000000E+00
  0.00000000E+00  0.00000000E+00  0.00000000E+00
  0.00000000E+00  0.00000000E+00  0.00000000E+00
  0.00000000E+00  0.00000000E+00  0.00000000E+00
  0.00000000E+00  0.00000000E+00  0.00000000E+00
  0.00000000E+00  0.00000000E+00  0.00000000E+00
  0.00000000E+00  0.00000000E+00  0.00000000E+00
  0.00000000E+00  0.00000000E+00  0.00000000E+00
  0.00000000E+00  0.00000000E+00  0.00000000E+00
  0.00000000E+00  0.00000000E+00  0.00000000E+00
  0.00000000E+00  0.00000000E+00  0.00000000E+00
  0.00000000E+00  0.00000000E+00  0.00000000E+00
  0.00000000E+00  0.00000000E+00  0.00000000E+00
  0.00000000E+00  0.00000000E+00  0.00000000E+00
  0.00000000E+00  0.00000000E+00  0.00000000E+00
  0.00000000E+00  0.00000000E+00  0.00000000E+00
  0.00000000E+00  0.00000000E+00  0.00000000E+00
  0.00000000E+00  0.00000000E+00  0.00000000E+00
  0.00000000E+00  0.00000000E+00  0.00000000E+00
  0.00000000E+00  0.00000000E+00  0.00000000E+00
  0.00000000E+00  0.00000000E+00  0.00000000E+00
  0.00000000E+00  0.00000000E+00  0.00000000E+00
  0.00000000E+00  0.00000000E+00  0.00000000E+00
  0.00000000E+00  0.00000000E+00  0.00000000E+00
  0.00000000E+00  0.00000000E+00  0.00000000E+00
  0.00000000E+00  0.00000000E+00  0.00000000E+00
  0.00000000E+00  0.00000000E+00  0.00000000E+00
  0.00000000E+00  0.00000000E+00  0.00000000E+00
  0.00000000E+00  0.00000000E+00  0.00000000E+00
  0.00000000E+00  0.00000000E+00  0.00000000E+00
  0.00000000E+00  0.00000000E+00  0.00000000E+00
  0.00000000E+00  0.00000000E+00  0.00000000E+00
  0.00000000E+00  0.00000000E+00  0.00000000E+00
  0.00000000E+00  0.00000000E+00  0.00000000E+00
  0.00000000E+00  0.00000000E+00  0.00000000E+00
  0.00000000E+00  0.00000000E+00  0.00000000E+00
  0.00000000E+00  0.00000000E+00  0.00000000E+00
  0.00000000E+00  0.00000000E+00  0.00000000E+00
  0.00000000E+00  0.00000000E+00  0.00000000E+00
  0.00000000E+00  0.00000000E+00  0.00000000E+00
  0.00000000E+00  0.00000000E+00  0.00000000E+00
  0.00000000E+00  0.00000000E+00  0.00000000E+00
  0.00000000E+00  0.00000000E+00  0.00000000E+00
  0.00000000E+00  0.00000000E+00  0.00000000E+00
  0.00000000E+00  0.00000000E+00  0.00000000E+00
  0.00000000E+00  0.00000000E+00  0.00000000E+00
  0.00000000E+00  0.00000000E+00  0.00000000E+00
  0.00000000E+00  0.00000000E+00  0.00000000E+00
  0.00000000E+00  0.00000000E+00  0.00000000E+00
  0.00000000E+00  0.00000000E+00  0.00000000E+00
  0.00000000E+00  0.00000000E+00  0.00000000E+00
  0.00000000E+00  0.00000000E+00  0.00000000E+00
  0.00000000E+00  0.00000000E+00  0.00000000E+00
  0.00000000E+00  0.00000000E+00  0.00000000E+00
  0.00000000E+00  0.00000000E+00  0.00000000E+00
  0.00000000E+00  0.00000000E+00  0.00000000E+00
  0.00000000E+00  0.00000000E+00  0.00000000E+00
  0.00000000E+00  0.00000000E+00  0.00000000E+00
  0.00000000E+00  0.00000000E+00  0.00000000E+00
  0.00000000E+00  0.00000000E+00  0.00000000E+00
  0.00000000E+00  0.00000000E+00  0.00000000E+00
  0.00000000E+00  0.00000000E+00  0.00000000E+00
  0.00000000E+00  0.00000000E+00  0.00000000E+00
  0.00000000E+00  0.00000000E+00  0.00000000E+00
  0.00000000E+00  0.00000000E+00  0.00000000E+00
  0.00000000E+00  0.00000000E+00  0.00000000E+00
  0.00000000E+00  0.00000000E+00  0.00000000E+00
  0.00000000E+00  0.00000000E+00  0.00000000E+00
  0.00000000E+00  0.00000000E+00  0.00000000E+00
  0.00000000E+00  0.00000000E+00  0.00000000E+00
  0.00000000E+00  0.00000000E+00  0.00000000E+00
  0.00000000E+00  0.00000000E+00  0.00000000E+00
  0.00000000E+00  0.00000000E+00  0.00000000E+00
  0.00000000E+00  0.00000000E+00  0.00000000E+00
  0.00000000E+00  0.00000000E+00  0.00000000E+00
  0.00000000E+00  0.00000000E+00  0.00000000E+00
  0.00000000E+00  0.00000000E+00  0.00000000E+00
  0.00000000E+00  0.00000000E+00  0.00000000E+00
  0.00000000E+00  0.00000000E+00  0.00000000E+00
  0.00000000E+00  0.00000000E+00  0.00000000E+00
  0.00000000E+00  0.00000000E+00  0.00000000E+00
  0.00000000E+00  0.00000000E+00  0.00000000E+00
  0.00000000E+00  0.00000000E+00  0.00000000E+00
  0.00000000E+00  0.00000000E+00  0.00000000E+00
  0.00000000E+00  0.00000000E+00  0.00000000E+00
  0.00000000E+00  0.00000000E+00  0.00000000E+00
  0.00000000E+00  0.00000000E+00  0.00000000E+00
  0.00000000E+00  0.00000000E+00  0.00000000E+00
  0.00000000E+00  0.00000000E+00  0.00000000E+00
  0.00000000E+00  0.00000000E+00  0.00000000E+00
  0.00000000E+00  0.00000000E+00  0.00000000E+00
  0.00000000E+00  0.00000000E+00  0.00000000E+00
  0.00000000E+00  0.00000000E+00  0.00000000E+00
  0.00000000E+00  0.00000000E+00  0.00000000E+00
  0.00000000E+00  0.00000000E+00  0.00000000E+00
  0.00000000E+00  0.00000000E+00  0.00000000E+00
  0.00000000E+00  0.00000000E+00  0.00000000E+00
  0.00000000E+00  0.00000000E+00  0.00000000E+00
  0.00000000E+00  0.00000000E+00  0.00000000E+00
  0.00000000E+00  0.00000000E+00  0.00000000E+00
  0.00000000E+00  0.00000000E+00  0.00000000E+00
  0.00000000E+00  0.00000000E+00  0.00000000E+00
  0.00000000E+00  0.00000000E+00  0.00000000E+00
  0.00000000E+00  0.00000000E+00  0.00000000E+00
  0.00000000E+00  0.00000000E+00  0.00000000E+00
  0.00000000E+00  0.00000000E+00  0.00000000E+00
  0.00000000E+00  0.00000000E+00  0.00000000E+00
  0.00000000E+00  0.00000000E+00  0.00000000E+00
  0.00000000E+00  0.00000000E+00  0.00000000E+00
  0.00000000E+00  0.00000000E+00  0.00000000E+00
