MgF2NPT2x2x3                            
   1.00000000000000     
     9.2444238980900000    0.0000000000000000    0.0000000000000000
     0.0000000000000000    9.2444238980900000    0.0000000000000000
     0.0000000000000000    0.0000000000000000    9.1820558111700006
   Mg   F 
    24    48
Direct
  0.7526503546116449  0.7542436324341140  0.8226498111947206
  0.7344569840238028  0.7489778214828797  0.4990510235960844
  0.7474001246874714  0.7500899094688299  0.1546806009095424
  0.7429961707403481  0.2501520870205086  0.8295919585459204
  0.7578076098672446  0.2450345832325213  0.4960740088260186
  0.7581044786171841  0.2612040017388999  0.1715554895237162
  0.4913953002844380  0.4926570326391744  0.6632304149789287
  0.4986136849328252  0.4950287674287689  0.3294082985734693
  0.5007173775793297  0.5045269596981511 -0.0059084116647395
  0.5019518854621217  0.0094353865423545  0.6757027603196566
  0.4949855653109438  0.0040918196780497  0.3443215318272316
  0.5136967166077300 -0.0112707767804755  0.0082758291331972
  0.2437083776120897  0.7541911697449708  0.8344090216131660
  0.2631687379347427  0.7541675506564613  0.5194684304530149
  0.2474144076976074  0.7551426113451072  0.1718898499899982
  0.2451197666546346  0.2450889301651605  0.8307153719629964
  0.2517195623942194  0.2444557320993845  0.5037922363475345
  0.2471968108589505  0.2471867815759710  0.1712105158850026
 -0.0067267038495843  0.5105103801720284  0.6618989428589278
 -0.0064172677311669  0.5064989349739016  0.3489273637601805
  0.0047056584363471  0.4905115705723757 -0.0013993915075398
  0.0071087799832145  0.0021292023912251  0.6568028524311369
  0.0055565030229633 -0.0172050693988897  0.3242081476316016
  0.0017328046342946 -0.0014118632305724  0.0007170061246331
  0.1121264766638836  0.9150381481306239  0.8387986037233626
  0.1210828954235498  0.8978530761847565  0.5029101696705550
  0.0965096729379984  0.8981714692709092  0.1697406675309832
  0.0931275620932319  0.4030150184829652  0.8175638930818392
  0.0850394315425569  0.3759266648747154  0.5004133971368534
  0.1025723352928953  0.3924428853369856  0.1804908615907677
  0.8896307403394913  0.0968223101459259  0.8139419185981049
  0.9194585439157816  0.0979051230139175  0.4896285368863754
  0.9262110518822063  0.1110008959503668  0.1690607836626937
  0.8930447969904406  0.5948830949983501  0.8335043439914535
  0.9000247447221306  0.6059008807085494  0.5014930234950813
  0.9014963143190610  0.5968752852560832  0.1670638157183987
  0.8580832074273929  0.8467054501531908  0.6565300287157105
  0.8451502702161288  0.8341942885212332  0.3357047569783881
  0.8418266581479100  0.8618688297731556  0.0081623311367584
  0.8333271476696933  0.3542984274686964  0.6580977665026193
  0.8449138569438122  0.3742452587503990  0.3322243471440414
  0.8439914977554622  0.3565945226535681 -0.0012995625895799
  0.6266217206766093  0.6748545544438407  0.6700861120240100
  0.6429868172735254  0.6507684512646460  0.3288328198653990
  0.6443564983507806  0.6568929240954181 -0.0208090018732884
  0.6421860542904508  0.1553316811111880  0.6548979202989108
  0.6625265640374441  0.1569645823805023  0.3303106481035820
  0.6639599456500110  0.1384765544023566 -0.0033077735734856
  0.6103181490712056  0.9064445611931992  0.8300069387380541
  0.6051229293140040  0.9219046855433360  0.5132307092118228
  0.5947308547492908  0.8949481242551011  0.1883905858545824
  0.5769947656317070  0.3895101450634688  0.8209346056966692
  0.5973852409553637  0.3937587235984946  0.4930009387723422
  0.5923420728285672  0.3919323267511299  0.1564729099410331
  0.4135539356119404  0.1087458354259180  0.8388627460752082
  0.3927025699851178  0.0780690791501202  0.5116861157983883
  0.4039021396352942  0.0903970138747663  0.1660503489366502
  0.3978333146255907  0.5975246607016158  0.8370279570246514
  0.4037215538032106  0.6012360701317607  0.5022091491971049
  0.3975342450865498  0.5955596814663455  0.1626383476371759
  0.3625267021093337  0.8545745897203066  0.6812716389515697
  0.3558268329784837  0.8466795143719269  0.3411481436053868
  0.3474731084991597  0.8524463216233589  0.0044247258793513
  0.3421499482501095  0.3476959048073752  0.6612362967818514
  0.3505270610183027  0.3454225394063716  0.3301509325911515
  0.3448309293215422  0.3485596411209708  0.0015089077693274
  0.1461756418507587  0.6548317746866653  0.6690632659921029
  0.1428690732860100  0.6529422454751032  0.3381087542487952
  0.1461038590652702  0.6560573161703307 -0.0024903137757997
  0.1698962106302453  0.1329388058241497  0.6706894015897257
  0.1680864054002266  0.1345174891415429  0.3446943732828153
  0.1483216014040742  0.1620961125670472 -0.0088003775883329
 
 -0.34900862E-02  0.46592443E-02  0.74605000E-02
  0.22334662E-02  0.11723904E-02 -0.12444594E-02
  0.95630960E-03  0.23450805E-02 -0.10232114E-02
  0.50459465E-02  0.27458399E-02  0.28043047E-02
 -0.22184893E-03  0.57124125E-02 -0.21595803E-02
  0.18437253E-02 -0.69334234E-02 -0.39344596E-02
  0.57536276E-02  0.44359098E-03  0.26309807E-02
  0.29741586E-02 -0.13523222E-02  0.40251804E-02
  0.33933353E-02 -0.36830378E-02  0.52503478E-02
  0.82402005E-03 -0.20011611E-02 -0.23086678E-02
 -0.17190336E-02  0.13191617E-02  0.14681448E-02
 -0.27016349E-02 -0.43218426E-02 -0.43544893E-02
 -0.93045105E-03 -0.30549042E-02 -0.51455845E-03
 -0.41145054E-02 -0.86050725E-03 -0.13272551E-02
  0.49653573E-02 -0.71728461E-02 -0.61789704E-03
 -0.37367912E-02  0.85126326E-02  0.24275341E-03
  0.57244373E-02 -0.44655659E-02  0.94103644E-03
  0.15321412E-02 -0.34246686E-02  0.44178318E-03
  0.30149549E-02  0.14539476E-02  0.39465271E-03
 -0.45342981E-02 -0.10325109E-02  0.22082739E-02
 -0.66283789E-02  0.37013845E-02 -0.22251007E-02
  0.41046208E-02  0.10590617E-02  0.47920225E-02
  0.50327755E-02 -0.36438036E-02  0.20394336E-02
  0.17482291E-02 -0.31608947E-02 -0.19097776E-02
 -0.26199874E-02 -0.56924358E-02  0.14112809E-02
 -0.85178923E-02  0.99617459E-03  0.52296566E-03
 -0.27546730E-02 -0.36067716E-02  0.73328381E-03
 -0.27384518E-02 -0.35767418E-02 -0.89855834E-03
  0.48946680E-02  0.50209672E-03 -0.38832087E-02
 -0.44367493E-02 -0.26693895E-02 -0.52792622E-02
  0.48083756E-03  0.73205619E-02  0.67067673E-02
  0.15279257E-02  0.88479712E-03 -0.49189204E-02
 -0.12784709E-02  0.56152662E-02 -0.21033558E-02
  0.43450318E-02  0.66843797E-03 -0.91234118E-03
 -0.52286264E-03  0.10958827E-02 -0.50434783E-02
  0.88863219E-03 -0.31230652E-02  0.21031462E-02
 -0.26267661E-02  0.34723205E-02  0.24112652E-02
 -0.20688443E-02  0.80898378E-03  0.33452279E-02
  0.18436031E-02 -0.13072254E-03 -0.85523909E-03
  0.98855788E-03  0.42632546E-02 -0.31803927E-02
 -0.56514950E-02  0.66331553E-02 -0.27949094E-02
 -0.36403945E-02 -0.15849256E-02  0.12763387E-02
  0.59084116E-02 -0.26127864E-02 -0.23868694E-02
  0.14474813E-03 -0.50541200E-02 -0.28300655E-03
  0.46064186E-03 -0.28739866E-02  0.44363164E-03
 -0.27813217E-02  0.36571374E-02  0.91232902E-03
 -0.41198256E-03 -0.38223086E-02 -0.12198265E-02
  0.13662823E-02 -0.30137986E-02  0.30496693E-04
 -0.49902985E-03  0.87752445E-03  0.46984802E-03
  0.19108029E-03 -0.62126269E-02  0.34727107E-02
 -0.34748584E-02  0.15366981E-02  0.74036192E-03
  0.29711433E-02  0.20968070E-02 -0.91843558E-03
  0.22937336E-02 -0.45283566E-02  0.33175468E-02
 -0.30350295E-02 -0.34793117E-02  0.28848163E-02
 -0.20999573E-03  0.14926876E-02 -0.28051518E-02
  0.59170400E-02  0.11070194E-02  0.29912906E-03
  0.41341984E-02 -0.17003658E-02 -0.44900896E-02
  0.16892529E-02 -0.35308936E-02  0.60617314E-02
 -0.55707179E-02  0.28984862E-02 -0.28719971E-02
 -0.66232932E-03 -0.46376505E-03  0.36992655E-03
  0.63072446E-03  0.71864968E-02  0.17251482E-03
 -0.40529847E-02  0.54830285E-02 -0.10271615E-02
 -0.57047545E-02 -0.14122656E-02 -0.60593505E-02
  0.22776281E-02  0.59662353E-02  0.74387878E-03
 -0.75391794E-03  0.75565815E-02 -0.49434385E-02
 -0.28125879E-02  0.34728391E-02 -0.53322197E-02
 -0.27164289E-02 -0.97405721E-03 -0.35346010E-03
  0.45629674E-02 -0.28594384E-02 -0.44478132E-03
 -0.16652763E-02 -0.53422177E-02  0.40420505E-02
 -0.34607809E-02  0.75920312E-02  0.16571664E-02
  0.46687196E-03  0.17061042E-02  0.27056679E-03
 -0.27129911E-03 -0.12961943E-02  0.18726925E-02
 
           1
   1.00000000000000     
 -0.54151527E+00  0.18350330E-01  0.18387858E-01 -0.55988437E+00
  0.75227282E+00  0.75474764E+00  0.82346232E+00
  0.73469859E+00  0.74910464E+00  0.49891549E+00
  0.74750357E+00  0.75034358E+00  0.15456916E+00
  0.74354201E+00  0.25044911E+00  0.82989737E+00
  0.75778361E+00  0.24565251E+00  0.49583881E+00
  0.75830392E+00  0.26045399E+00  0.17112700E+00
  0.49201769E+00  0.49270502E+00  0.66351695E+00
  0.49893541E+00  0.49488248E+00  0.32984667E+00
  0.50108445E+00  0.50412855E+00  0.99466339E+00
  0.50204102E+00  0.92189143E-02  0.67545133E+00
  0.49479961E+00  0.42345178E-02  0.34448142E+00
  0.51340447E+00  0.98826172E+00  0.78015901E-02
  0.24360773E+00  0.75386071E+00  0.83435298E+00
  0.26272366E+00  0.75407447E+00  0.51932388E+00
  0.24795153E+00  0.75436670E+00  0.17182256E+00
  0.24471555E+00  0.24600977E+00  0.83074181E+00
  0.25233879E+00  0.24397268E+00  0.50389472E+00
  0.24736255E+00  0.24681632E+00  0.17125863E+00
  0.99359943E+00  0.51066766E+00  0.66194192E+00
  0.99309224E+00  0.50638724E+00  0.34916786E+00
  0.39886447E-02  0.49091196E+00  0.99835828E+00
  0.75527904E-02  0.22437646E-02  0.65732474E+00
  0.61009150E-02  0.98240077E+00  0.32443026E+00
  0.19219164E-02  0.99824621E+00  0.50901593E-03
  0.11184306E+00  0.91442238E+00  0.83895230E+00
  0.12016149E+00  0.89796084E+00  0.50296712E+00
  0.96211691E-01  0.89778131E+00  0.16982053E+00
  0.92831335E-01  0.40262811E+00  0.81746603E+00
  0.85568904E-01  0.37598098E+00  0.49999048E+00
  0.10209240E+00  0.39215413E+00  0.17991591E+00
  0.88968275E+00  0.97614200E-01  0.81467234E+00
  0.91962382E+00  0.98000834E-01  0.48909283E+00
  0.92607276E+00  0.11160832E+00  0.16883171E+00
  0.89351481E+00  0.59495540E+00  0.83340498E+00
  0.89996818E+00  0.60601943E+00  0.50094375E+00
  0.90159244E+00  0.59653745E+00  0.16729287E+00
  0.85779906E+00  0.84708106E+00  0.65679263E+00
  0.84492648E+00  0.83428180E+00  0.33606908E+00
  0.84202609E+00  0.86185469E+00  0.80691887E-02
  0.83343408E+00  0.35475960E+00  0.65775140E+00
  0.84430252E+00  0.37496279E+00  0.33191996E+00
  0.84359770E+00  0.35642308E+00  0.99883944E+00
  0.62726085E+00  0.67457192E+00  0.66982616E+00
  0.64300248E+00  0.65022173E+00  0.32880200E+00
  0.64440633E+00  0.65658204E+00  0.97923931E+00
  0.64188519E+00  0.15572729E+00  0.65499728E+00
  0.66248200E+00  0.15655111E+00  0.33017780E+00
  0.66410774E+00  0.13815054E+00  0.99669555E+00
  0.61026417E+00  0.90653949E+00  0.83005811E+00
  0.60514360E+00  0.92123265E+00  0.51360892E+00
  0.59435497E+00  0.89511435E+00  0.18847122E+00
  0.57731616E+00  0.38973696E+00  0.82083458E+00
  0.59763336E+00  0.39326888E+00  0.49336225E+00
  0.59201376E+00  0.39155596E+00  0.15678709E+00
  0.41353122E+00  0.10890730E+00  0.83855724E+00
  0.39334264E+00  0.78188829E-01  0.51171869E+00
  0.40434935E+00  0.90213080E-01  0.16556134E+00
  0.39801605E+00  0.59714271E+00  0.83768813E+00
  0.40311895E+00  0.60154961E+00  0.50189637E+00
  0.39746260E+00  0.59550951E+00  0.16267864E+00
  0.36259493E+00  0.85535198E+00  0.68129043E+00
  0.35538841E+00  0.84727263E+00  0.34103628E+00
  0.34685601E+00  0.85229355E+00  0.37648137E-02
  0.34239633E+00  0.34834129E+00  0.66131731E+00
  0.35044551E+00  0.34623996E+00  0.32961255E+00
  0.34452668E+00  0.34893531E+00  0.92818600E-03
  0.14588180E+00  0.65472641E+00  0.66902477E+00
  0.14336266E+00  0.65263293E+00  0.33806031E+00
  0.14592372E+00  0.65547943E+00  0.99794990E+00
  0.16952185E+00  0.13376006E+00  0.67086988E+00
  0.16813691E+00  0.13470204E+00  0.34472384E+00
  0.14829225E+00  0.16195590E+00  0.99140357E+00
  0.00000000E+00  0.00000000E+00  0.00000000E+00
  0.00000000E+00  0.00000000E+00  0.00000000E+00
  0.00000000E+00  0.00000000E+00  0.00000000E+00
  0.00000000E+00  0.00000000E+00  0.00000000E+00
  0.00000000E+00  0.00000000E+00  0.00000000E+00
  0.00000000E+00  0.00000000E+00  0.00000000E+00
  0.00000000E+00  0.00000000E+00  0.00000000E+00
  0.00000000E+00  0.00000000E+00  0.00000000E+00
  0.00000000E+00  0.00000000E+00  0.00000000E+00
  0.00000000E+00  0.00000000E+00  0.00000000E+00
  0.00000000E+00  0.00000000E+00  0.00000000E+00
  0.00000000E+00  0.00000000E+00  0.00000000E+00
  0.00000000E+00  0.00000000E+00  0.00000000E+00
  0.00000000E+00  0.00000000E+00  0.00000000E+00
  0.00000000E+00  0.00000000E+00  0.00000000E+00
  0.00000000E+00  0.00000000E+00  0.00000000E+00
  0.00000000E+00  0.00000000E+00  0.00000000E+00
  0.00000000E+00  0.00000000E+00  0.00000000E+00
  0.00000000E+00  0.00000000E+00  0.00000000E+00
  0.00000000E+00  0.00000000E+00  0.00000000E+00
  0.00000000E+00  0.00000000E+00  0.00000000E+00
  0.00000000E+00  0.00000000E+00  0.00000000E+00
  0.00000000E+00  0.00000000E+00  0.00000000E+00
  0.00000000E+00  0.00000000E+00  0.00000000E+00
  0.00000000E+00  0.00000000E+00  0.00000000E+00
  0.00000000E+00  0.00000000E+00  0.00000000E+00
  0.00000000E+00  0.00000000E+00  0.00000000E+00
  0.00000000E+00  0.00000000E+00  0.00000000E+00
  0.00000000E+00  0.00000000E+00  0.00000000E+00
  0.00000000E+00  0.00000000E+00  0.00000000E+00
  0.00000000E+00  0.00000000E+00  0.00000000E+00
  0.00000000E+00  0.00000000E+00  0.00000000E+00
  0.00000000E+00  0.00000000E+00  0.00000000E+00
  0.00000000E+00  0.00000000E+00  0.00000000E+00
  0.00000000E+00  0.00000000E+00  0.00000000E+00
  0.00000000E+00  0.00000000E+00  0.00000000E+00
  0.00000000E+00  0.00000000E+00  0.00000000E+00
  0.00000000E+00  0.00000000E+00  0.00000000E+00
  0.00000000E+00  0.00000000E+00  0.00000000E+00
  0.00000000E+00  0.00000000E+00  0.00000000E+00
  0.00000000E+00  0.00000000E+00  0.00000000E+00
  0.00000000E+00  0.00000000E+00  0.00000000E+00
  0.00000000E+00  0.00000000E+00  0.00000000E+00
  0.00000000E+00  0.00000000E+00  0.00000000E+00
  0.00000000E+00  0.00000000E+00  0.00000000E+00
  0.00000000E+00  0.00000000E+00  0.00000000E+00
  0.00000000E+00  0.00000000E+00  0.00000000E+00
  0.00000000E+00  0.00000000E+00  0.00000000E+00
  0.00000000E+00  0.00000000E+00  0.00000000E+00
  0.00000000E+00  0.00000000E+00  0.00000000E+00
  0.00000000E+00  0.00000000E+00  0.00000000E+00
  0.00000000E+00  0.00000000E+00  0.00000000E+00
  0.00000000E+00  0.00000000E+00  0.00000000E+00
  0.00000000E+00  0.00000000E+00  0.00000000E+00
  0.00000000E+00  0.00000000E+00  0.00000000E+00
  0.00000000E+00  0.00000000E+00  0.00000000E+00
  0.00000000E+00  0.00000000E+00  0.00000000E+00
  0.00000000E+00  0.00000000E+00  0.00000000E+00
  0.00000000E+00  0.00000000E+00  0.00000000E+00
  0.00000000E+00  0.00000000E+00  0.00000000E+00
  0.00000000E+00  0.00000000E+00  0.00000000E+00
  0.00000000E+00  0.00000000E+00  0.00000000E+00
  0.00000000E+00  0.00000000E+00  0.00000000E+00
  0.00000000E+00  0.00000000E+00  0.00000000E+00
  0.00000000E+00  0.00000000E+00  0.00000000E+00
  0.00000000E+00  0.00000000E+00  0.00000000E+00
  0.00000000E+00  0.00000000E+00  0.00000000E+00
  0.00000000E+00  0.00000000E+00  0.00000000E+00
  0.00000000E+00  0.00000000E+00  0.00000000E+00
  0.00000000E+00  0.00000000E+00  0.00000000E+00
  0.00000000E+00  0.00000000E+00  0.00000000E+00
  0.00000000E+00  0.00000000E+00  0.00000000E+00
  0.00000000E+00  0.00000000E+00  0.00000000E+00
  0.00000000E+00  0.00000000E+00  0.00000000E+00
  0.00000000E+00  0.00000000E+00  0.00000000E+00
  0.00000000E+00  0.00000000E+00  0.00000000E+00
  0.00000000E+00  0.00000000E+00  0.00000000E+00
  0.00000000E+00  0.00000000E+00  0.00000000E+00
  0.00000000E+00  0.00000000E+00  0.00000000E+00
  0.00000000E+00  0.00000000E+00  0.00000000E+00
  0.00000000E+00  0.00000000E+00  0.00000000E+00
  0.00000000E+00  0.00000000E+00  0.00000000E+00
  0.00000000E+00  0.00000000E+00  0.00000000E+00
  0.00000000E+00  0.00000000E+00  0.00000000E+00
  0.00000000E+00  0.00000000E+00  0.00000000E+00
  0.00000000E+00  0.00000000E+00  0.00000000E+00
  0.00000000E+00  0.00000000E+00  0.00000000E+00
  0.00000000E+00  0.00000000E+00  0.00000000E+00
  0.00000000E+00  0.00000000E+00  0.00000000E+00
  0.00000000E+00  0.00000000E+00  0.00000000E+00
  0.00000000E+00  0.00000000E+00  0.00000000E+00
  0.00000000E+00  0.00000000E+00  0.00000000E+00
  0.00000000E+00  0.00000000E+00  0.00000000E+00
  0.00000000E+00  0.00000000E+00  0.00000000E+00
  0.00000000E+00  0.00000000E+00  0.00000000E+00
  0.00000000E+00  0.00000000E+00  0.00000000E+00
  0.00000000E+00  0.00000000E+00  0.00000000E+00
  0.00000000E+00  0.00000000E+00  0.00000000E+00
  0.00000000E+00  0.00000000E+00  0.00000000E+00
  0.00000000E+00  0.00000000E+00  0.00000000E+00
  0.00000000E+00  0.00000000E+00  0.00000000E+00
  0.00000000E+00  0.00000000E+00  0.00000000E+00
  0.00000000E+00  0.00000000E+00  0.00000000E+00
  0.00000000E+00  0.00000000E+00  0.00000000E+00
  0.00000000E+00  0.00000000E+00  0.00000000E+00
  0.00000000E+00  0.00000000E+00  0.00000000E+00
  0.00000000E+00  0.00000000E+00  0.00000000E+00
  0.00000000E+00  0.00000000E+00  0.00000000E+00
  0.00000000E+00  0.00000000E+00  0.00000000E+00
  0.00000000E+00  0.00000000E+00  0.00000000E+00
  0.00000000E+00  0.00000000E+00  0.00000000E+00
  0.00000000E+00  0.00000000E+00  0.00000000E+00
  0.00000000E+00  0.00000000E+00  0.00000000E+00
  0.00000000E+00  0.00000000E+00  0.00000000E+00
  0.00000000E+00  0.00000000E+00  0.00000000E+00
  0.00000000E+00  0.00000000E+00  0.00000000E+00
  0.00000000E+00  0.00000000E+00  0.00000000E+00
  0.00000000E+00  0.00000000E+00  0.00000000E+00
  0.00000000E+00  0.00000000E+00  0.00000000E+00
  0.00000000E+00  0.00000000E+00  0.00000000E+00
  0.00000000E+00  0.00000000E+00  0.00000000E+00
  0.00000000E+00  0.00000000E+00  0.00000000E+00
  0.00000000E+00  0.00000000E+00  0.00000000E+00
  0.00000000E+00  0.00000000E+00  0.00000000E+00
  0.00000000E+00  0.00000000E+00  0.00000000E+00
  0.00000000E+00  0.00000000E+00  0.00000000E+00
  0.00000000E+00  0.00000000E+00  0.00000000E+00
  0.00000000E+00  0.00000000E+00  0.00000000E+00
  0.00000000E+00  0.00000000E+00  0.00000000E+00
  0.00000000E+00  0.00000000E+00  0.00000000E+00
  0.00000000E+00  0.00000000E+00  0.00000000E+00
  0.00000000E+00  0.00000000E+00  0.00000000E+00
  0.00000000E+00  0.00000000E+00  0.00000000E+00
  0.00000000E+00  0.00000000E+00  0.00000000E+00
  0.00000000E+00  0.00000000E+00  0.00000000E+00
  0.00000000E+00  0.00000000E+00  0.00000000E+00
  0.00000000E+00  0.00000000E+00  0.00000000E+00
  0.00000000E+00  0.00000000E+00  0.00000000E+00
  0.00000000E+00  0.00000000E+00  0.00000000E+00
  0.00000000E+00  0.00000000E+00  0.00000000E+00
  0.00000000E+00  0.00000000E+00  0.00000000E+00
  0.00000000E+00  0.00000000E+00  0.00000000E+00
  0.00000000E+00  0.00000000E+00  0.00000000E+00
  0.00000000E+00  0.00000000E+00  0.00000000E+00
