MgF2NPT2x2x3                            
   1.00000000000000     
     9.2444238980900000    0.0000000000000000    0.0000000000000000
     0.0000000000000000    9.2444238980900000    0.0000000000000000
     0.0000000000000000    0.0000000000000000    9.1820558111700006
   Mg   F 
    24    48
Direct
  0.7503890929610565  0.7549704405082585  0.8442928250758442
  0.7581478685506892  0.7449935721713340  0.5058592632075463
  0.7492180787169227  0.7576671274874472  0.1728620532141807
  0.7578960202005661  0.2423044160316290  0.8226303079212618
  0.7514729403840256  0.2505636847524088  0.4914665783904454
  0.7493285830202165  0.2491424482743933  0.1700016681071123
  0.5040601451120148  0.4977997959053093  0.6858592372147601
  0.4971707342682468  0.5047610115519778  0.3477553028686525
  0.4884673556171282  0.4922588171102716  1.0140192789303657
  0.4921171513259138  1.0066203255039792  0.6610719791190630
  0.5019239938719648  1.0038614407642912  0.3280097474928887
  0.4948011325055363 -0.0170808875091142  0.0034673841458313
  0.2468755258765438  0.7434193827409865  0.8339921771445894
  0.2541731742266384  0.7535271795585659  0.4973257433351128
  0.2436792796356985  0.7463095097280235  0.1672675495445050
  0.2442332083007875  0.2551173035918304  0.8307723410573821
  0.2461885223454618  0.2575220407515954  0.4847411957302584
  0.2448271262289131  0.2470350162464028  0.1665802862049146
  0.0046725634040963  0.4917536330831641  0.6708194192178848
  0.0080164419566921  0.4950649739046161  0.3328076321691946
 -0.0113816137266404  0.5096029375154152  0.9985396090454488
  0.0059885527387136  0.9931108282866199  0.6558228233826826
  1.0037487543958308  0.0086538058400843  0.3271742167954673
  1.0015825142145398  0.0047060271455125 -0.0066481103249357
  0.1060561379714543  0.8968751483134224  0.8302548626663092
  0.1046108703296767  0.9002655465855711  0.4977875448832055
  0.1121028850298332  0.9204666411953883  0.1655563760534033
  0.0909561693056994  0.4005122802884455  0.8370048906359454
  0.1058029664994505  0.4032005428250326  0.4951317506425224
  0.0953811416783225  0.3991536699419997  0.1731692860212976
  0.9016683823295792  0.0953946531047064  0.8173105540412026
  0.9139454834401081  0.1133827627607496  0.5008959313312243
  0.9080376009280113  0.0926671316876664  0.1611876782209902
  0.9027185168694696  0.6001456627478028  0.8187501058396176
  0.9144513111300501  0.6030111249788445  0.5069799579770780
  0.8954599860181275  0.6076137421760791  0.1662363662960960
  0.8459459190939350  0.8485970074194356  0.6812530813329433
  0.8571131422395096  0.8531558548777356  0.3380027326036488
  0.8496042386001278  0.8565737803876214  1.0095831617542148
  0.8517720345524906  0.3444623762423331  0.6601666639184197
  0.8489678079099292  0.3456333675169486  0.3285601057990164
  0.8493772113889028  0.3446160705014574  0.0043383380928499
  0.6400374280592797  0.6619968934267308  0.6679326056419126
  0.6552555924677057  0.6509012636929997  0.3379572802586561
  0.6470831388294064  0.6423341103767665 -0.0066795012629570
  0.6414085027579608  0.1662141526215821  0.6563951022776365
  0.6646521977083487  0.1407549577295600  0.3400349027113666
  0.6626886304232186  0.1441603546769106  0.9976361366942644
  0.5910742148770094  0.8940240083776353  0.8301021347444490
  0.6040049444415275  0.9134384843266353  0.5137735719927021
  0.5795188443237841  0.8757899269264285  0.1715002978376100
  0.6183007454307083  0.4099190551611741  0.8393232383731829
  0.6126051588956231  0.4055181100118303  0.5192321496737136
  0.6053498245302814  0.4027503522298729  0.1742052961485873
  0.4055291238225759  0.0934632937261487  0.8391833822819171
  0.3959110922293320  0.1199924679281208  0.4893280552294672
  0.4000129350681941  0.0934402953206198  0.1589544479635001
  0.3827118859515379  0.5790236166561468  0.8382164736308597
  0.3967368649698069  0.5946104466268729  0.5067751553823235
  0.3962781375999813  0.5950416628354542  0.1716304089992179
  0.3470773241592459  0.8500437139303171  0.6669910408805516
  0.3443708996164859  0.8541404225239903  0.3305440169261612
  0.3537275104525063  0.8293307578359043 -0.0057209992323047
  0.3510513395798339  0.3539570340520971  0.6656611852217043
  0.3520690755275922  0.3581417545130038  0.3247773664284347
  0.3365057813881799  0.3399506397549201  1.0064109606087712
  0.1546488686948774  0.6485945815551137  0.6643994057612331
  0.1423539296701244  0.6515513439972752  0.3227377996770300
  0.1354943830455634  0.6535124546855196 -0.0099570062492560
  0.1498056225710875  0.1478545957471240  0.6616209369273556
  0.1473154212001199  0.1627480146113472  0.3300022009635706
  0.1483023656127568  0.1491391370925569  0.9965393997752231
 
  0.23482914E-02 -0.21507889E-02 -0.36646402E-02
  0.11475829E-02 -0.36440239E-02 -0.15280507E-02
 -0.23825651E-02 -0.13204957E-03 -0.13083677E-02
 -0.22963788E-04  0.21391453E-02 -0.28243733E-02
  0.21777008E-02  0.41377730E-02 -0.31136428E-03
 -0.16251578E-02  0.11337234E-02 -0.15876134E-02
 -0.48957401E-02  0.88720374E-04  0.55214487E-03
  0.10230005E-02 -0.13175907E-02  0.42373774E-03
 -0.55975401E-02 -0.60664457E-03 -0.12361255E-02
  0.76796192E-03  0.27265279E-02 -0.40286906E-02
 -0.13177059E-02 -0.34042574E-03 -0.41458307E-02
 -0.23123560E-02 -0.25247659E-02  0.72156555E-03
  0.20203991E-02  0.35796373E-02  0.72897575E-03
 -0.34039757E-02 -0.28267904E-02  0.57679768E-02
  0.52175313E-02 -0.17332151E-02 -0.46668189E-03
 -0.45365516E-02  0.24989662E-02  0.35640991E-02
  0.12651087E-02  0.97954482E-03 -0.27415921E-02
 -0.17380821E-02 -0.22291590E-02 -0.44478473E-02
  0.57711033E-02 -0.94639701E-03  0.30790634E-02
  0.23095811E-02  0.38708705E-02  0.44699602E-02
  0.15442134E-02 -0.41961951E-02  0.37029710E-02
  0.45848116E-02 -0.23687925E-03  0.79757445E-02
 -0.31855523E-02  0.10788386E-02  0.14314720E-02
 -0.43900105E-02 -0.29967671E-02 -0.47540314E-02
  0.86816649E-04  0.46603632E-02  0.31968198E-02
  0.74751782E-03  0.11580440E-02  0.42224452E-02
  0.14959133E-02 -0.43608083E-02 -0.20513148E-02
  0.20655567E-02  0.21173065E-02  0.10853778E-03
 -0.90826219E-02 -0.60877673E-02 -0.51578649E-02
 -0.28233136E-02  0.10410837E-02 -0.35751012E-02
 -0.13698854E-02 -0.67939068E-02  0.48752943E-02
 -0.66795712E-03  0.25745936E-03 -0.30806829E-02
 -0.43873623E-03  0.11277974E-02  0.41942065E-03
  0.26234460E-02 -0.47694690E-03 -0.17016581E-02
 -0.12907863E-02  0.13216310E-02 -0.20652653E-02
 -0.47806172E-02 -0.97537631E-02  0.37780374E-02
  0.17378709E-02 -0.30012593E-02  0.35804943E-02
  0.51174858E-02 -0.26437826E-03  0.75666002E-02
 -0.41937335E-02  0.28699753E-03 -0.69403272E-03
 -0.69761044E-02  0.67652722E-02 -0.26494178E-02
  0.81614731E-03 -0.75367076E-02  0.47474484E-02
  0.31285666E-02  0.63209644E-02  0.27645830E-02
 -0.39160756E-02  0.40395158E-02 -0.72855701E-02
  0.50678189E-02  0.84581595E-02 -0.22830479E-02
  0.34610110E-02 -0.43327193E-02 -0.37749412E-02
  0.29184365E-02  0.65800183E-02 -0.12612345E-02
 -0.29826002E-02  0.63620686E-02 -0.19700679E-02
 -0.94715209E-03  0.44151739E-02 -0.20515251E-02
 -0.74522250E-03  0.50628164E-02 -0.12393701E-02
 -0.18140747E-04  0.34309715E-02 -0.73740859E-03
 -0.22803821E-02 -0.26440953E-02  0.90498728E-03
 -0.27445739E-02 -0.12204234E-02  0.17415199E-02
 -0.36560646E-02  0.62833907E-02 -0.26206226E-02
 -0.18644784E-02 -0.51552500E-02 -0.11297567E-02
 -0.11544481E-02 -0.25680415E-02 -0.38952719E-02
 -0.16470456E-02  0.34587442E-03  0.39322638E-02
  0.22447230E-02  0.56011979E-02 -0.31676738E-02
  0.91946322E-02  0.27727717E-02  0.31018326E-02
  0.29841526E-02  0.39771942E-02  0.53624892E-03
  0.12119984E-02 -0.29012982E-03 -0.92227427E-03
 -0.28775383E-04 -0.56002552E-02 -0.15490438E-02
  0.67629798E-02 -0.10531594E-02 -0.62329717E-02
 -0.31953936E-02 -0.10023468E-01  0.76641367E-02
  0.24588080E-02 -0.10974964E-02  0.20517405E-02
  0.19067322E-02  0.73015952E-03  0.43258171E-02
 -0.60943636E-02  0.27636641E-02 -0.32449389E-02
  0.34798217E-02  0.12619481E-02  0.19516867E-03
 -0.21491889E-02 -0.28109475E-02 -0.13851108E-02
  0.58539058E-02 -0.16559132E-02 -0.29561088E-02
  0.10002945E-02 -0.45832516E-02  0.59035372E-02
 -0.15400925E-02  0.22448413E-02  0.26122350E-02
  0.69152633E-02 -0.34090160E-02  0.12558946E-02
 
           1
   1.00000000000000     
 -0.65148410E+00 -0.78401188E-03 -0.17919445E-02 -0.65019612E+00
  0.75064312E+00  0.75473778E+00  0.84389372E+00
  0.75827201E+00  0.74459939E+00  0.50569285E+00
  0.74896035E+00  0.75765284E+00  0.17271956E+00
  0.75789354E+00  0.24253581E+00  0.82232271E+00
  0.75170851E+00  0.25101128E+00  0.49143267E+00
  0.74915278E+00  0.24926509E+00  0.16982876E+00
  0.50353056E+00  0.49780939E+00  0.68591937E+00
  0.49728140E+00  0.50461848E+00  0.34780145E+00
  0.48786185E+00  0.49219319E+00  0.13884655E-01
  0.49220022E+00  0.69152631E-02  0.66063322E+00
  0.50178145E+00  0.38246158E-02  0.32755823E+00
  0.49455100E+00  0.98264600E+00  0.35459685E-02
  0.24709408E+00  0.74380660E+00  0.83407157E+00
  0.25380495E+00  0.75322140E+00  0.49795392E+00
  0.24424368E+00  0.74612202E+00  0.16721672E+00
  0.24374247E+00  0.25538763E+00  0.83116050E+00
  0.24632537E+00  0.25762800E+00  0.48444261E+00
  0.24463911E+00  0.24679388E+00  0.16609588E+00
  0.52968428E-02  0.49165126E+00  0.67115475E+00
  0.82662770E-02  0.49548370E+00  0.33329445E+00
  0.98878543E+00  0.50914902E+00  0.99894289E+00
  0.64845070E-02  0.99308520E+00  0.65669145E+00
  0.34041626E-02  0.87705074E-02  0.32733012E+00
  0.11076322E-02  0.43818569E-02  0.99283414E+00
  0.10606553E+00  0.89737928E+00  0.83060302E+00
  0.10469173E+00  0.90039082E+00  0.49824740E+00
  0.11226470E+00  0.91999492E+00  0.16533297E+00
  0.91179607E-01  0.40074132E+00  0.83701671E+00
  0.10482047E+00  0.40254201E+00  0.49457002E+00
  0.95075734E-01  0.39926629E+00  0.17277993E+00
  0.90152020E+00  0.94659734E-01  0.81784151E+00
  0.91387323E+00  0.11341061E+00  0.50056042E+00
  0.90799014E+00  0.92789129E-01  0.16123336E+00
  0.90300230E+00  0.60009407E+00  0.81856478E+00
  0.91431168E+00  0.60315409E+00  0.50675503E+00
  0.89494285E+00  0.60655865E+00  0.16664783E+00
  0.84613391E+00  0.84827235E+00  0.68164303E+00
  0.85766672E+00  0.85312726E+00  0.33882680E+00
  0.84915059E+00  0.85660483E+00  0.95075760E-02
  0.85101741E+00  0.34519420E+00  0.65987812E+00
  0.84905609E+00  0.34481810E+00  0.32907714E+00
  0.84971564E+00  0.34529983E+00  0.46394235E-02
  0.63961381E+00  0.66243386E+00  0.66713915E+00
  0.65580380E+00  0.65181621E+00  0.33770864E+00
  0.64745753E+00  0.64186543E+00  0.99290938E+00
  0.64172420E+00  0.16692594E+00  0.65625774E+00
  0.66432956E+00  0.14144316E+00  0.33982035E+00
  0.66258617E+00  0.14463796E+00  0.99741271E+00
  0.59099360E+00  0.89457167E+00  0.82996716E+00
  0.60400298E+00  0.91380962E+00  0.51369326E+00
  0.57927217E+00  0.87550391E+00  0.17159886E+00
  0.61800386E+00  0.40978704E+00  0.83951290E+00
  0.61220967E+00  0.40619781E+00  0.51894674E+00
  0.60514814E+00  0.40219269E+00  0.17408226E+00
  0.40540424E+00  0.93185500E-01  0.83875916E+00
  0.39573293E+00  0.12002988E+00  0.48975631E+00
  0.40025575E+00  0.94046195E-01  0.15860946E+00
  0.38370650E+00  0.57932356E+00  0.83855429E+00
  0.39705967E+00  0.59504067E+00  0.50683356E+00
  0.39640924E+00  0.59501028E+00  0.17152997E+00
  0.34707421E+00  0.84943792E+00  0.66682234E+00
  0.34510247E+00  0.85402650E+00  0.32986520E+00
  0.35338185E+00  0.82824649E+00  0.99511369E+00
  0.35131732E+00  0.35383831E+00  0.66588464E+00
  0.35227533E+00  0.35822074E+00  0.32524848E+00
  0.33584653E+00  0.34024959E+00  0.60575606E-02
  0.15502529E+00  0.64873109E+00  0.66442066E+00
  0.14212144E+00  0.65124727E+00  0.32258695E+00
  0.13612762E+00  0.65333333E+00  0.98972105E+00
  0.14991383E+00  0.14735881E+00  0.66226388E+00
  0.14714882E+00  0.16299085E+00  0.33028669E+00
  0.14905041E+00  0.14877037E+00  0.99667618E+00
  0.00000000E+00  0.00000000E+00  0.00000000E+00
  0.00000000E+00  0.00000000E+00  0.00000000E+00
  0.00000000E+00  0.00000000E+00  0.00000000E+00
  0.00000000E+00  0.00000000E+00  0.00000000E+00
  0.00000000E+00  0.00000000E+00  0.00000000E+00
  0.00000000E+00  0.00000000E+00  0.00000000E+00
  0.00000000E+00  0.00000000E+00  0.00000000E+00
  0.00000000E+00  0.00000000E+00  0.00000000E+00
  0.00000000E+00  0.00000000E+00  0.00000000E+00
  0.00000000E+00  0.00000000E+00  0.00000000E+00
  0.00000000E+00  0.00000000E+00  0.00000000E+00
  0.00000000E+00  0.00000000E+00  0.00000000E+00
  0.00000000E+00  0.00000000E+00  0.00000000E+00
  0.00000000E+00  0.00000000E+00  0.00000000E+00
  0.00000000E+00  0.00000000E+00  0.00000000E+00
  0.00000000E+00  0.00000000E+00  0.00000000E+00
  0.00000000E+00  0.00000000E+00  0.00000000E+00
  0.00000000E+00  0.00000000E+00  0.00000000E+00
  0.00000000E+00  0.00000000E+00  0.00000000E+00
  0.00000000E+00  0.00000000E+00  0.00000000E+00
  0.00000000E+00  0.00000000E+00  0.00000000E+00
  0.00000000E+00  0.00000000E+00  0.00000000E+00
  0.00000000E+00  0.00000000E+00  0.00000000E+00
  0.00000000E+00  0.00000000E+00  0.00000000E+00
  0.00000000E+00  0.00000000E+00  0.00000000E+00
  0.00000000E+00  0.00000000E+00  0.00000000E+00
  0.00000000E+00  0.00000000E+00  0.00000000E+00
  0.00000000E+00  0.00000000E+00  0.00000000E+00
  0.00000000E+00  0.00000000E+00  0.00000000E+00
  0.00000000E+00  0.00000000E+00  0.00000000E+00
  0.00000000E+00  0.00000000E+00  0.00000000E+00
  0.00000000E+00  0.00000000E+00  0.00000000E+00
  0.00000000E+00  0.00000000E+00  0.00000000E+00
  0.00000000E+00  0.00000000E+00  0.00000000E+00
  0.00000000E+00  0.00000000E+00  0.00000000E+00
  0.00000000E+00  0.00000000E+00  0.00000000E+00
  0.00000000E+00  0.00000000E+00  0.00000000E+00
  0.00000000E+00  0.00000000E+00  0.00000000E+00
  0.00000000E+00  0.00000000E+00  0.00000000E+00
  0.00000000E+00  0.00000000E+00  0.00000000E+00
  0.00000000E+00  0.00000000E+00  0.00000000E+00
  0.00000000E+00  0.00000000E+00  0.00000000E+00
  0.00000000E+00  0.00000000E+00  0.00000000E+00
  0.00000000E+00  0.00000000E+00  0.00000000E+00
  0.00000000E+00  0.00000000E+00  0.00000000E+00
  0.00000000E+00  0.00000000E+00  0.00000000E+00
  0.00000000E+00  0.00000000E+00  0.00000000E+00
  0.00000000E+00  0.00000000E+00  0.00000000E+00
  0.00000000E+00  0.00000000E+00  0.00000000E+00
  0.00000000E+00  0.00000000E+00  0.00000000E+00
  0.00000000E+00  0.00000000E+00  0.00000000E+00
  0.00000000E+00  0.00000000E+00  0.00000000E+00
  0.00000000E+00  0.00000000E+00  0.00000000E+00
  0.00000000E+00  0.00000000E+00  0.00000000E+00
  0.00000000E+00  0.00000000E+00  0.00000000E+00
  0.00000000E+00  0.00000000E+00  0.00000000E+00
  0.00000000E+00  0.00000000E+00  0.00000000E+00
  0.00000000E+00  0.00000000E+00  0.00000000E+00
  0.00000000E+00  0.00000000E+00  0.00000000E+00
  0.00000000E+00  0.00000000E+00  0.00000000E+00
  0.00000000E+00  0.00000000E+00  0.00000000E+00
  0.00000000E+00  0.00000000E+00  0.00000000E+00
  0.00000000E+00  0.00000000E+00  0.00000000E+00
  0.00000000E+00  0.00000000E+00  0.00000000E+00
  0.00000000E+00  0.00000000E+00  0.00000000E+00
  0.00000000E+00  0.00000000E+00  0.00000000E+00
  0.00000000E+00  0.00000000E+00  0.00000000E+00
  0.00000000E+00  0.00000000E+00  0.00000000E+00
  0.00000000E+00  0.00000000E+00  0.00000000E+00
  0.00000000E+00  0.00000000E+00  0.00000000E+00
  0.00000000E+00  0.00000000E+00  0.00000000E+00
  0.00000000E+00  0.00000000E+00  0.00000000E+00
  0.00000000E+00  0.00000000E+00  0.00000000E+00
  0.00000000E+00  0.00000000E+00  0.00000000E+00
  0.00000000E+00  0.00000000E+00  0.00000000E+00
  0.00000000E+00  0.00000000E+00  0.00000000E+00
  0.00000000E+00  0.00000000E+00  0.00000000E+00
  0.00000000E+00  0.00000000E+00  0.00000000E+00
  0.00000000E+00  0.00000000E+00  0.00000000E+00
  0.00000000E+00  0.00000000E+00  0.00000000E+00
  0.00000000E+00  0.00000000E+00  0.00000000E+00
  0.00000000E+00  0.00000000E+00  0.00000000E+00
  0.00000000E+00  0.00000000E+00  0.00000000E+00
  0.00000000E+00  0.00000000E+00  0.00000000E+00
  0.00000000E+00  0.00000000E+00  0.00000000E+00
  0.00000000E+00  0.00000000E+00  0.00000000E+00
  0.00000000E+00  0.00000000E+00  0.00000000E+00
  0.00000000E+00  0.00000000E+00  0.00000000E+00
  0.00000000E+00  0.00000000E+00  0.00000000E+00
  0.00000000E+00  0.00000000E+00  0.00000000E+00
  0.00000000E+00  0.00000000E+00  0.00000000E+00
  0.00000000E+00  0.00000000E+00  0.00000000E+00
  0.00000000E+00  0.00000000E+00  0.00000000E+00
  0.00000000E+00  0.00000000E+00  0.00000000E+00
  0.00000000E+00  0.00000000E+00  0.00000000E+00
  0.00000000E+00  0.00000000E+00  0.00000000E+00
  0.00000000E+00  0.00000000E+00  0.00000000E+00
  0.00000000E+00  0.00000000E+00  0.00000000E+00
  0.00000000E+00  0.00000000E+00  0.00000000E+00
  0.00000000E+00  0.00000000E+00  0.00000000E+00
  0.00000000E+00  0.00000000E+00  0.00000000E+00
  0.00000000E+00  0.00000000E+00  0.00000000E+00
  0.00000000E+00  0.00000000E+00  0.00000000E+00
  0.00000000E+00  0.00000000E+00  0.00000000E+00
  0.00000000E+00  0.00000000E+00  0.00000000E+00
  0.00000000E+00  0.00000000E+00  0.00000000E+00
  0.00000000E+00  0.00000000E+00  0.00000000E+00
  0.00000000E+00  0.00000000E+00  0.00000000E+00
  0.00000000E+00  0.00000000E+00  0.00000000E+00
  0.00000000E+00  0.00000000E+00  0.00000000E+00
  0.00000000E+00  0.00000000E+00  0.00000000E+00
  0.00000000E+00  0.00000000E+00  0.00000000E+00
  0.00000000E+00  0.00000000E+00  0.00000000E+00
  0.00000000E+00  0.00000000E+00  0.00000000E+00
  0.00000000E+00  0.00000000E+00  0.00000000E+00
  0.00000000E+00  0.00000000E+00  0.00000000E+00
  0.00000000E+00  0.00000000E+00  0.00000000E+00
  0.00000000E+00  0.00000000E+00  0.00000000E+00
  0.00000000E+00  0.00000000E+00  0.00000000E+00
  0.00000000E+00  0.00000000E+00  0.00000000E+00
  0.00000000E+00  0.00000000E+00  0.00000000E+00
  0.00000000E+00  0.00000000E+00  0.00000000E+00
  0.00000000E+00  0.00000000E+00  0.00000000E+00
  0.00000000E+00  0.00000000E+00  0.00000000E+00
  0.00000000E+00  0.00000000E+00  0.00000000E+00
  0.00000000E+00  0.00000000E+00  0.00000000E+00
  0.00000000E+00  0.00000000E+00  0.00000000E+00
  0.00000000E+00  0.00000000E+00  0.00000000E+00
  0.00000000E+00  0.00000000E+00  0.00000000E+00
  0.00000000E+00  0.00000000E+00  0.00000000E+00
  0.00000000E+00  0.00000000E+00  0.00000000E+00
  0.00000000E+00  0.00000000E+00  0.00000000E+00
  0.00000000E+00  0.00000000E+00  0.00000000E+00
  0.00000000E+00  0.00000000E+00  0.00000000E+00
  0.00000000E+00  0.00000000E+00  0.00000000E+00
  0.00000000E+00  0.00000000E+00  0.00000000E+00
  0.00000000E+00  0.00000000E+00  0.00000000E+00
  0.00000000E+00  0.00000000E+00  0.00000000E+00
  0.00000000E+00  0.00000000E+00  0.00000000E+00
  0.00000000E+00  0.00000000E+00  0.00000000E+00
  0.00000000E+00  0.00000000E+00  0.00000000E+00
  0.00000000E+00  0.00000000E+00  0.00000000E+00
  0.00000000E+00  0.00000000E+00  0.00000000E+00
  0.00000000E+00  0.00000000E+00  0.00000000E+00
