NaFNPT                                  
   1.00000000000000     
     9.4069619572559304    0.0031333384790655    0.0196151152233961
    -0.0000000000067388    9.4069678773824030    0.0233095823872160
    -0.0000000000027863   -0.0000000000036032    9.4069677853730909
   F    Na
    32    32
Direct
  0.2502812825650533  1.0012867909164029  1.0032896194800014
  0.2386512980030222 -0.0048071442587645  0.5219311561531634
  0.2552239573926175  0.5082199188378494  1.0279754936096284
  0.2364924228143282  0.4919218563517235  0.4920243192965043
  0.2607540978338352  0.2511298981016419  0.2579530408790625
  0.2413569438251295  0.2547723435732776  0.7508425149045218
  0.2593289649136951  0.7586910220319301  0.2656921393047719
  0.2218287667325664  0.7306730499947504  0.7512438052411722
  1.0062091949709364  0.2490394562112155 -0.0126644431661744
 -0.0003942836554429  0.2408046709125611  0.4870669815536698
  0.9963413990476157  0.9917588308949927  0.2392381477060112
 -0.0179357386419895  1.0009536418485900  0.7646975991296207
  1.0040964060193998  0.5099958357991440  0.2440065860716867
  1.0069357525608942  0.4894830438431803  0.7581325562022285
  1.0099941375966139  0.7602300675106853  1.0001641182896395
  0.0080591496355157  0.7641032972350837  0.4892762227970021
  0.5183755299340311  0.2420525907999836 -0.0107276182997665
  0.4920048566073424  0.2351651209918270  0.4952968148952481
  0.4957158233094054  0.9984264457620002  0.2539160243396416
  0.4960932356707170 -0.0136414401417222  0.7513571754499554
  0.5207465266813690  0.4962117005294108  0.2420272785021267
  0.4880452556485617  0.5070203050530435  0.7300469634902857
  0.5137109520507344  0.7577486681132063  0.0083626946529199
  0.5013720859889386  0.7523412768819806  0.4928295667790731
  0.7518800149686110  0.9873448697638099  1.0032592657818407
  0.7530830469813300 -0.0001830117843283  0.4956366045789279
  0.7500580606958591  0.5220484840880505 -0.0012173986038937
  0.7585775306201420  0.4881379292502566  0.4948591179833344
  0.7621597103005660  0.2567922575384549  0.2348219593283631
  0.7360840415270272  0.2601990868342029  0.7432705743033707
  0.7472050301491889  0.7482842229829353  0.2440801670966722
  0.7400907355111230  0.7419154775616057  0.7242288286013895
  0.2400413521611497  0.2620656786232517  0.0111635959778496
  0.2565392464576309  0.2570173746028586  0.4896686933322359
  0.2416463753909648 -0.0069884676876266  0.2467200397950538
  0.2562352243570925  0.0024930503911642  0.7507932576279766
  0.2402746242747021  0.5074321921264104  0.2535931647346554
  0.2438481747027924  0.5000630495589582  0.7250841399281299
  0.2569314064969481  0.7491372649589432  0.9914640250605055
  0.2521594645973051  0.7393538280818384  0.5034722435935667
  1.0037125387206323  0.9930938500939502  0.9900878519402516
  0.9911809033850653 -0.0081546379649556  0.4869579658729241
  1.0092693389295446  0.5052753145896725  0.0059027352088231
  0.9998729787034062  0.4962226869301904  0.5062589837171402
  0.0150567784867890  0.2339967568518133  0.2558050573906823
  0.0062261557536370  0.2508509628832071  0.7323521848615056
  1.0074086678944958  0.7524935710877797  0.2536602049056736
 -0.0182811887128065  0.7543021822888347  0.7600884409393480
  0.4857826264615001  0.0177411236438826  0.0108184547151576
  0.4864978466343911  0.9969644994616881  0.4994475058546227
  0.5139506598158964  0.4940176235088179  0.9981920953876779
  0.5214891090080941  0.4807480142640691  0.4842123639350484
  0.5114005909734121  0.2509135721995946  0.2471885367355365
  0.4906607540782377  0.2647091328247260  0.7517476199402038
  0.5043148854586700  0.7555337651589814  0.2544874584985749
  0.4727664849758131  0.7406073747210237  0.7429154583928999
  0.7685661764811940  0.2625250034189414  0.9903781446732846
  0.7478861420266866  0.2432410120391893  0.4971994601920475
  0.7514001437841564  0.0004768371042380  0.2543669724117572
  0.7392903983700262  0.0037696617729446  0.7517694754100058
  0.7517746811187388  0.5092229346279042  0.2386240064691668
  0.7430727653546764  0.5033852887319205  0.7674347039114394
  0.7581266106042692  0.7670279601662613  1.0036189405538007
  0.7530325868090102  0.7431566036251999  0.4976359938049572
 
 -0.24447602E-02 -0.60686617E-03  0.15649933E-02
  0.28026406E-02  0.16681210E-02 -0.22531096E-02
  0.29821366E-02  0.60727150E-02 -0.22957471E-02
  0.57484065E-03 -0.70432059E-02  0.54653524E-02
  0.23698244E-02 -0.13223398E-02 -0.84384174E-03
 -0.26515326E-02  0.41709061E-02  0.36759563E-03
 -0.11125423E-02  0.11539888E-02  0.79708977E-02
  0.59141061E-02 -0.13921335E-02 -0.23400263E-02
 -0.44360619E-02  0.99049228E-03  0.13934428E-02
  0.30686179E-02 -0.62252767E-03  0.78744048E-03
  0.13203538E-02  0.27477145E-02 -0.18380418E-02
  0.70816035E-02 -0.45154967E-02 -0.21690846E-02
  0.25910807E-02  0.52534744E-02 -0.31805307E-02
  0.47702297E-02 -0.24256038E-02 -0.49736946E-02
 -0.68498585E-03  0.48239776E-02 -0.94491669E-03
  0.27143718E-02 -0.50040683E-02 -0.29084086E-02
 -0.10254773E-01 -0.38240709E-02  0.43671568E-02
  0.30172793E-02  0.26842689E-02 -0.18310113E-02
 -0.93179778E-02  0.14758144E-02 -0.25289073E-02
  0.10514081E-03 -0.14740121E-02  0.95939933E-03
  0.19993572E-02 -0.21448260E-02 -0.78884013E-03
 -0.18264705E-02  0.46722390E-04  0.43635597E-02
  0.60153462E-02  0.24296567E-02  0.27235981E-03
  0.32125736E-02 -0.15207103E-02  0.28477372E-02
 -0.64250177E-03  0.36327993E-02  0.44477427E-02
  0.13725503E-02 -0.20957893E-02  0.21444777E-02
  0.38291416E-02  0.44229755E-02 -0.27216917E-02
  0.15152983E-02  0.12806857E-03  0.15496440E-02
  0.63005804E-03 -0.72672173E-02 -0.34332119E-02
  0.11098992E-02  0.66986023E-02 -0.34909230E-03
 -0.41045671E-02  0.76476608E-03 -0.32121254E-02
 -0.38554903E-02 -0.17301358E-02 -0.21532973E-02
  0.51886590E-02  0.22904660E-03  0.48812774E-02
 -0.10700715E-02 -0.29624135E-02 -0.46941876E-02
  0.62636442E-02 -0.14496940E-02  0.13379225E-03
 -0.54177903E-02  0.85900445E-02  0.57223019E-02
 -0.42106870E-02  0.10500890E-02  0.32530659E-02
 -0.36831999E-02  0.12042983E-02  0.93219341E-03
  0.53141045E-03 -0.25698429E-02  0.18851255E-02
 -0.73492673E-03 -0.27239634E-02  0.11957886E-02
  0.32151648E-04  0.10866626E-02 -0.26833221E-02
 -0.62917653E-03  0.65660993E-02 -0.33084873E-03
  0.18263476E-04 -0.24429169E-02 -0.61443417E-02
 -0.35202994E-02 -0.18299666E-02 -0.11796623E-02
  0.19816572E-02 -0.52983495E-02 -0.23961915E-02
  0.17320607E-02 -0.27363616E-02 -0.33512497E-02
 -0.31838636E-03 -0.29791075E-02 -0.17807390E-03
  0.28425942E-02  0.17219558E-02  0.46536380E-02
 -0.41658941E-06 -0.27907569E-02  0.25680557E-02
  0.43233737E-03  0.37736571E-02 -0.20460134E-03
 -0.49308669E-02  0.60873985E-02 -0.36229611E-02
  0.77229096E-03 -0.19966698E-03 -0.96037942E-03
 -0.53019350E-03  0.46743105E-02  0.49204465E-02
 -0.24898600E-02 -0.56954541E-02  0.59003324E-02
 -0.20738387E-02 -0.26564768E-02 -0.53357465E-02
 -0.79636113E-03 -0.32839267E-02 -0.37086545E-02
  0.16387056E-02 -0.20667723E-02  0.19397384E-02
 -0.93099469E-02  0.14489592E-02  0.35599952E-02
 -0.19571035E-02 -0.11337206E-02 -0.67283654E-02
  0.33098853E-03 -0.16662892E-03  0.10226629E-02
  0.26080741E-02 -0.56558838E-02 -0.66735771E-02
 -0.23005560E-02 -0.12086248E-02  0.43819794E-02
 -0.19863287E-02 -0.25208678E-02  0.33969224E-02
  0.21052981E-03  0.84650549E-02  0.58430856E-03
 
           1
   1.00000000000000     
 -0.47491459E+00  0.65682315E-02  0.57473435E-02 -0.48107238E+00
  0.25002139E+00  0.12223651E-02  0.34566864E-02
  0.23894923E+00  0.99537008E+00  0.52169058E+00
  0.25554097E+00  0.50886537E+00  0.27729186E-01
  0.23655353E+00  0.49117311E+00  0.49260704E+00
  0.26100602E+00  0.25098924E+00  0.25786316E+00
  0.24107507E+00  0.25521582E+00  0.75088108E+00
  0.25921070E+00  0.75881374E+00  0.26653942E+00
  0.22245746E+00  0.73052485E+00  0.75099411E+00
  0.57376227E-02  0.24914491E+00  0.98748441E+00
  0.99993192E+00  0.24073838E+00  0.48715017E+00
  0.99648176E+00  0.99205088E+00  0.23904174E+00
  0.98281707E+00  0.47337493E-03  0.76446664E+00
  0.43718489E-02  0.51055421E+00  0.24366652E+00
  0.74428482E-02  0.48922502E+00  0.75760341E+00
  0.99213207E-02  0.76074290E+00  0.62550779E-04
  0.83476989E-02  0.76357125E+00  0.48896776E+00
  0.51728540E+00  0.24164644E+00  0.98973991E+00
  0.49232561E+00  0.23545036E+00  0.49510080E+00
  0.49472528E+00  0.99858366E+00  0.25364887E+00
  0.49610441E+00  0.98620186E+00  0.75145953E+00
  0.52095907E+00  0.49598363E+00  0.24194354E+00
  0.48785109E+00  0.50702534E+00  0.73051122E+00
  0.51435041E+00  0.75800674E+00  0.83896748E-02
  0.50171360E+00  0.75217951E+00  0.49313198E+00
  0.75181171E+00  0.98773107E+00  0.37312649E-02
  0.75322895E+00  0.99959415E+00  0.49586482E+00
  0.75046511E+00  0.52251853E+00  0.99849126E+00
  0.75873861E+00  0.48815149E+00  0.49502348E+00
  0.76222669E+00  0.25601970E+00  0.23445877E+00
  0.73620203E+00  0.26091114E+00  0.74323145E+00
  0.74676870E+00  0.74836567E+00  0.24373941E+00
  0.73968088E+00  0.74173169E+00  0.72400123E+00
  0.24059293E+00  0.26208984E+00  0.11681286E-01
  0.25642549E+00  0.25670250E+00  0.48917070E+00
  0.24231223E+00  0.99285720E+00  0.24673326E+00
  0.25565929E+00  0.34063999E-02  0.75140050E+00
  0.23982701E+00  0.50754397E+00  0.25393964E+00
  0.24345663E+00  0.50019120E+00  0.72518373E+00
  0.25698790E+00  0.74886406E+00  0.99166498E+00
  0.25208134E+00  0.73906429E+00  0.50360024E+00
  0.37159566E-02  0.99320937E+00  0.98980231E+00
  0.99111402E+00  0.99254339E+00  0.48692121E+00
  0.92712804E-02  0.50501562E+00  0.52502055E-02
  0.99949876E+00  0.49602828E+00  0.50613484E+00
  0.15267437E-01  0.23343345E+00  0.25555129E+00
  0.64102812E-02  0.25056001E+00  0.73199627E+00
  0.73748221E-02  0.75217689E+00  0.25364213E+00
  0.98202099E+00  0.75448513E+00  0.76058206E+00
  0.48578258E+00  0.17444455E-01  0.11092185E-01
  0.48654381E+00  0.99736564E+00  0.49942467E+00
  0.51342649E+00  0.49466491E+00  0.99780645E+00
  0.52157121E+00  0.48072676E+00  0.48411015E+00
  0.51134423E+00  0.25141049E+00  0.24771049E+00
  0.49039607E+00  0.26410377E+00  0.75237690E+00
  0.50409443E+00  0.75525144E+00  0.25392141E+00
  0.47268183E+00  0.74025831E+00  0.74252225E+00
  0.76874038E+00  0.26230524E+00  0.99058453E+00
  0.74689646E+00  0.24339537E+00  0.49757958E+00
  0.75119210E+00  0.35638716E-03  0.25365245E+00
  0.73932558E+00  0.37519367E-02  0.75187816E+00
  0.75205193E+00  0.50862160E+00  0.23791549E+00
  0.74282821E+00  0.50325689E+00  0.76790135E+00
  0.75791546E+00  0.76676005E+00  0.39811518E-02
  0.75305497E+00  0.74405647E+00  0.49769583E+00
  0.00000000E+00  0.00000000E+00  0.00000000E+00
  0.00000000E+00  0.00000000E+00  0.00000000E+00
  0.00000000E+00  0.00000000E+00  0.00000000E+00
  0.00000000E+00  0.00000000E+00  0.00000000E+00
  0.00000000E+00  0.00000000E+00  0.00000000E+00
  0.00000000E+00  0.00000000E+00  0.00000000E+00
  0.00000000E+00  0.00000000E+00  0.00000000E+00
  0.00000000E+00  0.00000000E+00  0.00000000E+00
  0.00000000E+00  0.00000000E+00  0.00000000E+00
  0.00000000E+00  0.00000000E+00  0.00000000E+00
  0.00000000E+00  0.00000000E+00  0.00000000E+00
  0.00000000E+00  0.00000000E+00  0.00000000E+00
  0.00000000E+00  0.00000000E+00  0.00000000E+00
  0.00000000E+00  0.00000000E+00  0.00000000E+00
  0.00000000E+00  0.00000000E+00  0.00000000E+00
  0.00000000E+00  0.00000000E+00  0.00000000E+00
  0.00000000E+00  0.00000000E+00  0.00000000E+00
  0.00000000E+00  0.00000000E+00  0.00000000E+00
  0.00000000E+00  0.00000000E+00  0.00000000E+00
  0.00000000E+00  0.00000000E+00  0.00000000E+00
  0.00000000E+00  0.00000000E+00  0.00000000E+00
  0.00000000E+00  0.00000000E+00  0.00000000E+00
  0.00000000E+00  0.00000000E+00  0.00000000E+00
  0.00000000E+00  0.00000000E+00  0.00000000E+00
  0.00000000E+00  0.00000000E+00  0.00000000E+00
  0.00000000E+00  0.00000000E+00  0.00000000E+00
  0.00000000E+00  0.00000000E+00  0.00000000E+00
  0.00000000E+00  0.00000000E+00  0.00000000E+00
  0.00000000E+00  0.00000000E+00  0.00000000E+00
  0.00000000E+00  0.00000000E+00  0.00000000E+00
  0.00000000E+00  0.00000000E+00  0.00000000E+00
  0.00000000E+00  0.00000000E+00  0.00000000E+00
  0.00000000E+00  0.00000000E+00  0.00000000E+00
  0.00000000E+00  0.00000000E+00  0.00000000E+00
  0.00000000E+00  0.00000000E+00  0.00000000E+00
  0.00000000E+00  0.00000000E+00  0.00000000E+00
  0.00000000E+00  0.00000000E+00  0.00000000E+00
  0.00000000E+00  0.00000000E+00  0.00000000E+00
  0.00000000E+00  0.00000000E+00  0.00000000E+00
  0.00000000E+00  0.00000000E+00  0.00000000E+00
  0.00000000E+00  0.00000000E+00  0.00000000E+00
  0.00000000E+00  0.00000000E+00  0.00000000E+00
  0.00000000E+00  0.00000000E+00  0.00000000E+00
  0.00000000E+00  0.00000000E+00  0.00000000E+00
  0.00000000E+00  0.00000000E+00  0.00000000E+00
  0.00000000E+00  0.00000000E+00  0.00000000E+00
  0.00000000E+00  0.00000000E+00  0.00000000E+00
  0.00000000E+00  0.00000000E+00  0.00000000E+00
  0.00000000E+00  0.00000000E+00  0.00000000E+00
  0.00000000E+00  0.00000000E+00  0.00000000E+00
  0.00000000E+00  0.00000000E+00  0.00000000E+00
  0.00000000E+00  0.00000000E+00  0.00000000E+00
  0.00000000E+00  0.00000000E+00  0.00000000E+00
  0.00000000E+00  0.00000000E+00  0.00000000E+00
  0.00000000E+00  0.00000000E+00  0.00000000E+00
  0.00000000E+00  0.00000000E+00  0.00000000E+00
  0.00000000E+00  0.00000000E+00  0.00000000E+00
  0.00000000E+00  0.00000000E+00  0.00000000E+00
  0.00000000E+00  0.00000000E+00  0.00000000E+00
  0.00000000E+00  0.00000000E+00  0.00000000E+00
  0.00000000E+00  0.00000000E+00  0.00000000E+00
  0.00000000E+00  0.00000000E+00  0.00000000E+00
  0.00000000E+00  0.00000000E+00  0.00000000E+00
  0.00000000E+00  0.00000000E+00  0.00000000E+00
  0.00000000E+00  0.00000000E+00  0.00000000E+00
  0.00000000E+00  0.00000000E+00  0.00000000E+00
  0.00000000E+00  0.00000000E+00  0.00000000E+00
  0.00000000E+00  0.00000000E+00  0.00000000E+00
  0.00000000E+00  0.00000000E+00  0.00000000E+00
  0.00000000E+00  0.00000000E+00  0.00000000E+00
  0.00000000E+00  0.00000000E+00  0.00000000E+00
  0.00000000E+00  0.00000000E+00  0.00000000E+00
  0.00000000E+00  0.00000000E+00  0.00000000E+00
  0.00000000E+00  0.00000000E+00  0.00000000E+00
  0.00000000E+00  0.00000000E+00  0.00000000E+00
  0.00000000E+00  0.00000000E+00  0.00000000E+00
  0.00000000E+00  0.00000000E+00  0.00000000E+00
  0.00000000E+00  0.00000000E+00  0.00000000E+00
  0.00000000E+00  0.00000000E+00  0.00000000E+00
  0.00000000E+00  0.00000000E+00  0.00000000E+00
  0.00000000E+00  0.00000000E+00  0.00000000E+00
  0.00000000E+00  0.00000000E+00  0.00000000E+00
  0.00000000E+00  0.00000000E+00  0.00000000E+00
  0.00000000E+00  0.00000000E+00  0.00000000E+00
  0.00000000E+00  0.00000000E+00  0.00000000E+00
  0.00000000E+00  0.00000000E+00  0.00000000E+00
  0.00000000E+00  0.00000000E+00  0.00000000E+00
  0.00000000E+00  0.00000000E+00  0.00000000E+00
  0.00000000E+00  0.00000000E+00  0.00000000E+00
  0.00000000E+00  0.00000000E+00  0.00000000E+00
  0.00000000E+00  0.00000000E+00  0.00000000E+00
  0.00000000E+00  0.00000000E+00  0.00000000E+00
  0.00000000E+00  0.00000000E+00  0.00000000E+00
  0.00000000E+00  0.00000000E+00  0.00000000E+00
  0.00000000E+00  0.00000000E+00  0.00000000E+00
  0.00000000E+00  0.00000000E+00  0.00000000E+00
  0.00000000E+00  0.00000000E+00  0.00000000E+00
  0.00000000E+00  0.00000000E+00  0.00000000E+00
  0.00000000E+00  0.00000000E+00  0.00000000E+00
  0.00000000E+00  0.00000000E+00  0.00000000E+00
  0.00000000E+00  0.00000000E+00  0.00000000E+00
  0.00000000E+00  0.00000000E+00  0.00000000E+00
  0.00000000E+00  0.00000000E+00  0.00000000E+00
  0.00000000E+00  0.00000000E+00  0.00000000E+00
  0.00000000E+00  0.00000000E+00  0.00000000E+00
  0.00000000E+00  0.00000000E+00  0.00000000E+00
  0.00000000E+00  0.00000000E+00  0.00000000E+00
  0.00000000E+00  0.00000000E+00  0.00000000E+00
  0.00000000E+00  0.00000000E+00  0.00000000E+00
  0.00000000E+00  0.00000000E+00  0.00000000E+00
  0.00000000E+00  0.00000000E+00  0.00000000E+00
  0.00000000E+00  0.00000000E+00  0.00000000E+00
  0.00000000E+00  0.00000000E+00  0.00000000E+00
  0.00000000E+00  0.00000000E+00  0.00000000E+00
  0.00000000E+00  0.00000000E+00  0.00000000E+00
  0.00000000E+00  0.00000000E+00  0.00000000E+00
  0.00000000E+00  0.00000000E+00  0.00000000E+00
  0.00000000E+00  0.00000000E+00  0.00000000E+00
  0.00000000E+00  0.00000000E+00  0.00000000E+00
  0.00000000E+00  0.00000000E+00  0.00000000E+00
  0.00000000E+00  0.00000000E+00  0.00000000E+00
  0.00000000E+00  0.00000000E+00  0.00000000E+00
  0.00000000E+00  0.00000000E+00  0.00000000E+00
  0.00000000E+00  0.00000000E+00  0.00000000E+00
  0.00000000E+00  0.00000000E+00  0.00000000E+00
  0.00000000E+00  0.00000000E+00  0.00000000E+00
  0.00000000E+00  0.00000000E+00  0.00000000E+00
  0.00000000E+00  0.00000000E+00  0.00000000E+00
