NaFNPT                                  
   1.00000000000000     
     9.4069619572559304    0.0031333384790655    0.0196151152233961
    -0.0000000000067388    9.4069678773824030    0.0233095823872160
    -0.0000000000027863   -0.0000000000036032    9.4069677853730909
   F    Na
    32    32
Direct
  0.2423428781952091  0.9887541693944315  1.0313910346347090
  0.2487284006611790  0.0091314540309745  0.5022839182444978
  0.2378810067921320  0.5166634112738707  0.9971173261093187
  0.2671675849449640  0.5185013676778383  0.5036080519354270
  0.2285082336246929  0.2558114068566123  0.2639693310607495
  0.2457958240709596  0.2501793449478171  0.7651118143122373
  0.2397120801749908  0.7347584166118656  0.2542469819586373
  0.2622855915462061  0.7450529123067908  0.7333611686237232
  0.9903770502857184  0.2371045700408257  0.0092770473604630
  0.0013853990082420  0.2404471727792987  0.5037891989494315
  1.0038250384435756  0.9978841757158261  0.2502608862790879
  0.0046207860169725  0.9979052436876344  0.7262039456454475
  0.9959105019725992  0.5050672968302669  0.2277538997340103
  0.9891737079546451  0.5036181549877941  0.7250236661369680
  0.9864450810722035  0.7530462110176741  0.9819841042887143
 -0.0048581284025024  0.7460081849483140  0.4704934159274731
  0.5034211586558246  0.2485209287024836  0.0071482359515190
  0.5130135453746776  0.2404281384577082  0.4924973978969387
  0.5080337888448300  0.9880608045780144  0.2573538858784491
  0.4849206016918428  0.0022532874397536  0.7520949285561093
  0.4939339176668304  0.4995445799233890  0.2454935386077773
  0.5053500909220091  0.5062612393425521  0.7685422683468656
  0.5032434513451695  0.7654997428817326 -0.0028051305421635
  0.5072533995850693  0.7505371205535190  0.5010147652060021
  0.7501822005935304  0.9962582297056084  0.9898305754549108
  0.7435749220266563  0.0039658393417691  0.5151440316643664
  0.7557268437014084  0.5064863090087266  0.0030144612547435
  0.7518300048427913  0.5009113500298266  0.4806386528763847
  0.7283016598047526  0.2425715053080263  0.2460790880377496
  0.7409920608751833  0.2483343038207896  0.7459108501366326
  0.7572147215460060  0.7480150587698903  0.2558675409375152
  0.7466961381970854  0.7460951069997613  0.7400778398937951
  0.2418896519481611  0.2544100411012730  0.0160289246973686
  0.2440278944670135  0.2474025553626271  0.4951940941022075
  0.2542994732142586 -0.0142978852685414  0.2633366165994311
  0.2519964278444067  0.0202319005167037  0.7420026614718698
  0.2512325498900829  0.5143222465465062  0.2443878671167632
  0.2590454572118048  0.5090885872788176  0.7463982043218660
  0.2527077857364157  0.7419783562695698  0.9926797885295924
  0.2645533741640493  0.7394653391712542  0.5009863198625037
  1.0048223062784347  1.0052096937766937  0.9956585184740748
  1.0066687326672550 -0.0160670993027568  0.4881471021284545
  0.9985972226148497  0.5081452312465979  0.0013960586633940
  0.9843851220885134  0.4953300686527693  0.4863403779497131
 -0.0169194719632899  0.2466001007167014  0.2342083520069844
  0.0118242007830833  0.2637662908953413  0.7415926406890260
  0.9966655032743813  0.7453735317217549  0.2440398647647140
  0.0083930069411023  0.7569322990700063  0.7441002656624472
  0.4994885137851392  0.0135231059205947  0.0169985025028106
  0.5068536165791475  0.9907435145191181  0.4977710773392360
  0.5040398945528879  0.5059010957312718  1.0086392319418467
  0.5140501795677860  0.4925082872219568  0.4924819710211126
  0.4996043121679788  0.2461010959223069  0.2538706701440141
  0.4989692067399972  0.2475007593835878  0.7606547478812264
  0.5163061437043512  0.7382599419429092  0.2545407161521373
  0.5054733392213010  0.7424402628462322  0.7491252388029719
  0.7623796403863946  0.2395892808896200  1.0020396548826760
  0.7594848407191760  0.2442109742540115  0.4975738286983526
  0.7442988390241598  0.0045797615827726  0.2453190731282545
  0.7300264554479504  0.0063975713275950  0.7446704545358376
  0.7562372412156855  0.5090757224098343  0.2511306387590608
  0.7569123420055902  0.4959176605211035  0.7556502259099342
  0.7550158578104771  0.7649308209179397  0.9819940995978110
  0.7628320303627825  0.7442986364570737  0.5031102552967189
 
 -0.40534017E-02  0.21014396E-02 -0.22180063E-02
 -0.22697093E-03 -0.21696711E-02 -0.37663656E-02
 -0.29149583E-02 -0.46537403E-02 -0.35090882E-03
  0.55574988E-02 -0.47887508E-03  0.23449204E-02
 -0.16130394E-02 -0.16610351E-02  0.49651866E-02
  0.38881622E-02 -0.32875965E-02  0.99044155E-03
  0.21814775E-02  0.61117567E-02 -0.43531717E-02
  0.11875610E-02 -0.10743550E-02  0.34519058E-02
  0.22051629E-02  0.31197749E-02 -0.56253792E-02
  0.28944814E-02  0.57632747E-02  0.17250142E-02
 -0.20565082E-02 -0.27620018E-02  0.35582634E-03
  0.34256774E-02  0.57823102E-03 -0.27384203E-02
  0.48659089E-03 -0.19937151E-02  0.22000308E-02
  0.51309854E-02 -0.11664394E-02  0.20670515E-02
  0.77317916E-03 -0.31396969E-02 -0.17823502E-02
  0.92781357E-03 -0.21103678E-03  0.12979378E-02
  0.18397536E-02 -0.60482096E-03  0.19326497E-03
 -0.76164931E-02  0.15024795E-02 -0.24646932E-03
 -0.27974939E-03 -0.10177695E-02 -0.13439486E-02
  0.68018385E-03  0.41831706E-02  0.11151724E-02
 -0.48891930E-02 -0.12242257E-02 -0.49443327E-02
 -0.23088479E-03  0.20167348E-02 -0.14122705E-02
 -0.23003680E-02 -0.17090219E-02  0.74863903E-02
 -0.42353393E-03 -0.33818247E-02  0.27735935E-03
  0.59191490E-03  0.39558846E-02 -0.35798151E-02
 -0.52044015E-03 -0.10935109E-02 -0.12930784E-04
 -0.21121768E-02  0.93732410E-03  0.67718552E-03
 -0.33635586E-03 -0.58142708E-02 -0.18901444E-03
 -0.61723486E-02  0.20098856E-02  0.44960774E-02
  0.72304068E-03 -0.37665089E-02  0.37198647E-02
  0.41711166E-03  0.53702656E-03  0.14744713E-02
 -0.57043167E-02  0.10037188E-02  0.68745119E-02
 -0.68861762E-02 -0.16657033E-04  0.45478898E-03
  0.20277867E-02  0.27973923E-02 -0.28135253E-02
  0.15477655E-02 -0.34364285E-02 -0.38219501E-02
  0.27693422E-02 -0.61427923E-02  0.24475312E-02
 -0.17473136E-03  0.10889538E-02 -0.25118103E-02
  0.47588818E-02  0.13065338E-02 -0.33567835E-02
 -0.84049669E-02  0.95081954E-05 -0.14969156E-02
 -0.27010336E-02  0.27871942E-02  0.39915875E-02
  0.70347252E-02 -0.68113582E-04  0.39986251E-02
  0.16052183E-02  0.81603815E-02 -0.57587669E-03
 -0.32386419E-03 -0.22717660E-02  0.22592560E-02
 -0.37582193E-02  0.57732003E-02  0.70160312E-02
  0.33413009E-02 -0.72950268E-02 -0.11975142E-02
 -0.60650735E-04 -0.79722710E-03 -0.44387446E-02
  0.61559617E-02 -0.37323117E-03 -0.59966878E-02
  0.60875296E-02  0.47009795E-02  0.21821176E-02
  0.44477981E-02  0.18352403E-02  0.52170983E-02
  0.21204911E-02  0.52735840E-02 -0.27273266E-02
 -0.20003832E-02  0.15214488E-02 -0.50580098E-02
 -0.14885233E-02  0.38199574E-02 -0.48554468E-02
  0.19493150E-02  0.34259031E-02  0.31366849E-02
  0.11625890E-02 -0.50807314E-02 -0.10179101E-02
 -0.34759213E-02 -0.56086646E-02 -0.13717902E-02
  0.22719621E-02  0.32355362E-02 -0.21675417E-02
 -0.66653061E-02 -0.37557046E-02  0.35241394E-02
 -0.52400775E-02  0.31056930E-02  0.34333659E-02
  0.33431682E-03 -0.13760420E-02 -0.26766155E-02
  0.36511486E-03 -0.67023266E-02 -0.10165784E-03
  0.24115966E-02  0.32290125E-02  0.12121450E-02
 -0.15640646E-02  0.11161336E-02  0.31117318E-02
  0.71402910E-03 -0.16940083E-02 -0.55329671E-02
  0.19728559E-02  0.37420084E-03 -0.61782715E-02
 
           1
   1.00000000000000     
 -0.43561341E+00 -0.56925825E-02 -0.53490760E-02 -0.43009258E+00
  0.24191198E+00  0.98897770E+00  0.31155596E-01
  0.24870427E+00  0.89008170E-02  0.50188416E+00
  0.23757113E+00  0.51616880E+00  0.99708189E+00
  0.26775837E+00  0.51845026E+00  0.50385622E+00
  0.22833676E+00  0.25563489E+00  0.26449795E+00
  0.24620915E+00  0.24982972E+00  0.76521711E+00
  0.23994398E+00  0.73540804E+00  0.25378213E+00
  0.26241183E+00  0.74493866E+00  0.73372814E+00
  0.99061147E+00  0.23743614E+00  0.86777356E-02
  0.16930947E-02  0.24105973E+00  0.50397042E+00
  0.36064229E-02  0.99759064E+00  0.25029990E+00
  0.49849501E-02  0.99796659E+00  0.72591193E+00
  0.99596223E+00  0.50485534E+00  0.22798819E+00
  0.98971915E+00  0.50349398E+00  0.72524257E+00
  0.98652727E+00  0.75271242E+00  0.98179529E+00
  0.99524050E+00  0.74598572E+00  0.47063124E+00
  0.50361673E+00  0.24845657E+00  0.71685325E-02
  0.51220388E+00  0.24058813E+00  0.49247249E+00
  0.50800405E+00  0.98795262E+00  0.25721135E+00
  0.48499291E+00  0.26979519E-02  0.75221222E+00
  0.49341418E+00  0.49941461E+00  0.24496934E+00
  0.50532555E+00  0.50647563E+00  0.76839166E+00
  0.50299891E+00  0.76531815E+00  0.99799166E+00
  0.50720838E+00  0.75017763E+00  0.50104523E+00
  0.75024512E+00  0.99667874E+00  0.98944885E+00
  0.74351960E+00  0.38496130E-02  0.51514306E+00
  0.75550231E+00  0.50658603E+00  0.30866700E-02
  0.75179425E+00  0.50029328E+00  0.48062017E+00
  0.72764551E+00  0.24278538E+00  0.24655788E+00
  0.74106892E+00  0.24793388E+00  0.74630712E+00
  0.75725906E+00  0.74807213E+00  0.25602405E+00
  0.74608975E+00  0.74620201E+00  0.74080963E+00
  0.24115762E+00  0.25440851E+00  0.16078801E-01
  0.24424346E+00  0.24769986E+00  0.49489382E+00
  0.25446401E+00  0.98533675E+00  0.26293089E+00
  0.25229082E+00  0.19578798E-01  0.74226385E+00
  0.25121398E+00  0.51443801E+00  0.24412060E+00
  0.25955135E+00  0.50922731E+00  0.74603997E+00
  0.25181430E+00  0.74197966E+00  0.99252252E+00
  0.26426624E+00  0.73976173E+00  0.50141051E+00
  0.55701274E-02  0.52022039E-02  0.99608205E+00
  0.68393742E-02  0.98480033E+00  0.48808338E+00
  0.99856279E+00  0.50790374E+00  0.16368972E-02
  0.98398561E+00  0.49594392E+00  0.48708552E+00
  0.98343572E+00  0.24582449E+00  0.23408223E+00
  0.11817753E-01  0.26368154E+00  0.74112101E+00
  0.99731991E+00  0.74533364E+00  0.24340113E+00
  0.90401372E-02  0.75743182E+00  0.74432965E+00
  0.49996133E+00  0.13718042E-01  0.17551633E-01
  0.50707903E+00  0.99130404E+00  0.49747929E+00
  0.50382725E+00  0.50606290E+00  0.81015868E-02
  0.51389194E+00  0.49291442E+00  0.49196514E+00
  0.49981153E+00  0.24646521E+00  0.25420278E+00
  0.49909279E+00  0.24696062E+00  0.76054762E+00
  0.51593664E+00  0.73766384E+00  0.25439714E+00
  0.50571486E+00  0.74278413E+00  0.74889346E+00
  0.76167109E+00  0.23919027E+00  0.24167518E-02
  0.75892780E+00  0.24454131E+00  0.49793915E+00
  0.74433438E+00  0.44334707E-02  0.24503483E+00
  0.73006527E+00  0.56850731E-02  0.74466133E+00
  0.75649360E+00  0.50941889E+00  0.25125811E+00
  0.75674608E+00  0.49603637E+00  0.75598107E+00
  0.75509176E+00  0.76475072E+00  0.98140621E+00
  0.76304175E+00  0.74433835E+00  0.50245294E+00
  0.00000000E+00  0.00000000E+00  0.00000000E+00
  0.00000000E+00  0.00000000E+00  0.00000000E+00
  0.00000000E+00  0.00000000E+00  0.00000000E+00
  0.00000000E+00  0.00000000E+00  0.00000000E+00
  0.00000000E+00  0.00000000E+00  0.00000000E+00
  0.00000000E+00  0.00000000E+00  0.00000000E+00
  0.00000000E+00  0.00000000E+00  0.00000000E+00
  0.00000000E+00  0.00000000E+00  0.00000000E+00
  0.00000000E+00  0.00000000E+00  0.00000000E+00
  0.00000000E+00  0.00000000E+00  0.00000000E+00
  0.00000000E+00  0.00000000E+00  0.00000000E+00
  0.00000000E+00  0.00000000E+00  0.00000000E+00
  0.00000000E+00  0.00000000E+00  0.00000000E+00
  0.00000000E+00  0.00000000E+00  0.00000000E+00
  0.00000000E+00  0.00000000E+00  0.00000000E+00
  0.00000000E+00  0.00000000E+00  0.00000000E+00
  0.00000000E+00  0.00000000E+00  0.00000000E+00
  0.00000000E+00  0.00000000E+00  0.00000000E+00
  0.00000000E+00  0.00000000E+00  0.00000000E+00
  0.00000000E+00  0.00000000E+00  0.00000000E+00
  0.00000000E+00  0.00000000E+00  0.00000000E+00
  0.00000000E+00  0.00000000E+00  0.00000000E+00
  0.00000000E+00  0.00000000E+00  0.00000000E+00
  0.00000000E+00  0.00000000E+00  0.00000000E+00
  0.00000000E+00  0.00000000E+00  0.00000000E+00
  0.00000000E+00  0.00000000E+00  0.00000000E+00
  0.00000000E+00  0.00000000E+00  0.00000000E+00
  0.00000000E+00  0.00000000E+00  0.00000000E+00
  0.00000000E+00  0.00000000E+00  0.00000000E+00
  0.00000000E+00  0.00000000E+00  0.00000000E+00
  0.00000000E+00  0.00000000E+00  0.00000000E+00
  0.00000000E+00  0.00000000E+00  0.00000000E+00
  0.00000000E+00  0.00000000E+00  0.00000000E+00
  0.00000000E+00  0.00000000E+00  0.00000000E+00
  0.00000000E+00  0.00000000E+00  0.00000000E+00
  0.00000000E+00  0.00000000E+00  0.00000000E+00
  0.00000000E+00  0.00000000E+00  0.00000000E+00
  0.00000000E+00  0.00000000E+00  0.00000000E+00
  0.00000000E+00  0.00000000E+00  0.00000000E+00
  0.00000000E+00  0.00000000E+00  0.00000000E+00
  0.00000000E+00  0.00000000E+00  0.00000000E+00
  0.00000000E+00  0.00000000E+00  0.00000000E+00
  0.00000000E+00  0.00000000E+00  0.00000000E+00
  0.00000000E+00  0.00000000E+00  0.00000000E+00
  0.00000000E+00  0.00000000E+00  0.00000000E+00
  0.00000000E+00  0.00000000E+00  0.00000000E+00
  0.00000000E+00  0.00000000E+00  0.00000000E+00
  0.00000000E+00  0.00000000E+00  0.00000000E+00
  0.00000000E+00  0.00000000E+00  0.00000000E+00
  0.00000000E+00  0.00000000E+00  0.00000000E+00
  0.00000000E+00  0.00000000E+00  0.00000000E+00
  0.00000000E+00  0.00000000E+00  0.00000000E+00
  0.00000000E+00  0.00000000E+00  0.00000000E+00
  0.00000000E+00  0.00000000E+00  0.00000000E+00
  0.00000000E+00  0.00000000E+00  0.00000000E+00
  0.00000000E+00  0.00000000E+00  0.00000000E+00
  0.00000000E+00  0.00000000E+00  0.00000000E+00
  0.00000000E+00  0.00000000E+00  0.00000000E+00
  0.00000000E+00  0.00000000E+00  0.00000000E+00
  0.00000000E+00  0.00000000E+00  0.00000000E+00
  0.00000000E+00  0.00000000E+00  0.00000000E+00
  0.00000000E+00  0.00000000E+00  0.00000000E+00
  0.00000000E+00  0.00000000E+00  0.00000000E+00
  0.00000000E+00  0.00000000E+00  0.00000000E+00
  0.00000000E+00  0.00000000E+00  0.00000000E+00
  0.00000000E+00  0.00000000E+00  0.00000000E+00
  0.00000000E+00  0.00000000E+00  0.00000000E+00
  0.00000000E+00  0.00000000E+00  0.00000000E+00
  0.00000000E+00  0.00000000E+00  0.00000000E+00
  0.00000000E+00  0.00000000E+00  0.00000000E+00
  0.00000000E+00  0.00000000E+00  0.00000000E+00
  0.00000000E+00  0.00000000E+00  0.00000000E+00
  0.00000000E+00  0.00000000E+00  0.00000000E+00
  0.00000000E+00  0.00000000E+00  0.00000000E+00
  0.00000000E+00  0.00000000E+00  0.00000000E+00
  0.00000000E+00  0.00000000E+00  0.00000000E+00
  0.00000000E+00  0.00000000E+00  0.00000000E+00
  0.00000000E+00  0.00000000E+00  0.00000000E+00
  0.00000000E+00  0.00000000E+00  0.00000000E+00
  0.00000000E+00  0.00000000E+00  0.00000000E+00
  0.00000000E+00  0.00000000E+00  0.00000000E+00
  0.00000000E+00  0.00000000E+00  0.00000000E+00
  0.00000000E+00  0.00000000E+00  0.00000000E+00
  0.00000000E+00  0.00000000E+00  0.00000000E+00
  0.00000000E+00  0.00000000E+00  0.00000000E+00
  0.00000000E+00  0.00000000E+00  0.00000000E+00
  0.00000000E+00  0.00000000E+00  0.00000000E+00
  0.00000000E+00  0.00000000E+00  0.00000000E+00
  0.00000000E+00  0.00000000E+00  0.00000000E+00
  0.00000000E+00  0.00000000E+00  0.00000000E+00
  0.00000000E+00  0.00000000E+00  0.00000000E+00
  0.00000000E+00  0.00000000E+00  0.00000000E+00
  0.00000000E+00  0.00000000E+00  0.00000000E+00
  0.00000000E+00  0.00000000E+00  0.00000000E+00
  0.00000000E+00  0.00000000E+00  0.00000000E+00
  0.00000000E+00  0.00000000E+00  0.00000000E+00
  0.00000000E+00  0.00000000E+00  0.00000000E+00
  0.00000000E+00  0.00000000E+00  0.00000000E+00
  0.00000000E+00  0.00000000E+00  0.00000000E+00
  0.00000000E+00  0.00000000E+00  0.00000000E+00
  0.00000000E+00  0.00000000E+00  0.00000000E+00
  0.00000000E+00  0.00000000E+00  0.00000000E+00
  0.00000000E+00  0.00000000E+00  0.00000000E+00
  0.00000000E+00  0.00000000E+00  0.00000000E+00
  0.00000000E+00  0.00000000E+00  0.00000000E+00
  0.00000000E+00  0.00000000E+00  0.00000000E+00
  0.00000000E+00  0.00000000E+00  0.00000000E+00
  0.00000000E+00  0.00000000E+00  0.00000000E+00
  0.00000000E+00  0.00000000E+00  0.00000000E+00
  0.00000000E+00  0.00000000E+00  0.00000000E+00
  0.00000000E+00  0.00000000E+00  0.00000000E+00
  0.00000000E+00  0.00000000E+00  0.00000000E+00
  0.00000000E+00  0.00000000E+00  0.00000000E+00
  0.00000000E+00  0.00000000E+00  0.00000000E+00
  0.00000000E+00  0.00000000E+00  0.00000000E+00
  0.00000000E+00  0.00000000E+00  0.00000000E+00
  0.00000000E+00  0.00000000E+00  0.00000000E+00
  0.00000000E+00  0.00000000E+00  0.00000000E+00
  0.00000000E+00  0.00000000E+00  0.00000000E+00
  0.00000000E+00  0.00000000E+00  0.00000000E+00
  0.00000000E+00  0.00000000E+00  0.00000000E+00
  0.00000000E+00  0.00000000E+00  0.00000000E+00
  0.00000000E+00  0.00000000E+00  0.00000000E+00
  0.00000000E+00  0.00000000E+00  0.00000000E+00
  0.00000000E+00  0.00000000E+00  0.00000000E+00
  0.00000000E+00  0.00000000E+00  0.00000000E+00
  0.00000000E+00  0.00000000E+00  0.00000000E+00
  0.00000000E+00  0.00000000E+00  0.00000000E+00
