MgF2NPT2x2x3                            
   1.00000000000000     
     9.2444238980900000    0.0000000000000000    0.0000000000000000
     0.0000000000000000    9.2444238980900000    0.0000000000000000
     0.0000000000000000    0.0000000000000000    9.1820558111700006
   Mg   F 
    24    48
Direct
  0.7503172262321027  0.7553561388853989  0.8354625715489487
  0.7423331379497843  0.7433199808033106  0.4937681820693751
  0.7559477855035731  0.7537837882447281  0.1654355415556451
  0.7461760527424308  0.2580282069871577  0.8246018132732811
  0.7538890491490512  0.2466247333755081  0.5025827235357654
  0.7489023383536916  0.2576539398835659  0.1590061874431698
  0.4929432555908717  0.5038450452695097  0.6594021641405025
  0.5050905584930855  0.4911848576433755  0.3457011375633897
  0.4990239738144902  0.4876225739199431  0.0079276855082434
  0.4967618018091343 -0.0086303229382132  0.6679322441955678
  0.4864910907062088  0.9955819967661506  0.3310259903882604
  0.5011164912923693  0.9929352868057442  1.0055335712678017
  0.2544737530544722  0.7505840725782498  0.8406493960543160
  0.2499482295367068  0.7494066852304174  0.5076621700803745
  0.2487835050490523  0.7322987159566635  0.1625675163631072
  0.2444961455908263  0.2582779097976367  0.8434406931249187
  0.2474496751362016  0.2486962534520078  0.5063925470517014
  0.2608321753535540  0.2617427015867476  0.1845464700568426
  0.0043588480932516  0.5000875649119917  0.6611626472921155
 -0.0067999309571017  0.5011518099251182  0.3273361354556464
  0.0066524934051274  0.4885432180346094  0.9998654505632117
  0.0042209617131378  1.0029568221554175  0.6679481847720820
  1.0058299143021503  1.0002183787883281  0.3286788907532918
  1.0000136086014559  0.0117602093960623 -0.0072175913608776
  0.1090638975339231  0.9091147808597168  0.8326060661224955
  0.0905744197866355  0.8959515993427499  0.4930727689814919
  0.0962153927097724  0.9038621522228082  0.1462806773033507
  0.1052365597943059  0.4099166868465954  0.8179729335922112
  0.1028454619650761  0.3968101713007815  0.5053975057418495
  0.1069546028571243  0.4136100553137296  0.1733348918384526
  0.8826822080942429  0.0954657853475125  0.8300771502321913
  0.9104003886335732  0.1053658925877882  0.4997436274050048
  0.8964678068572036  0.0992689571755202  0.1655258224446337
  0.8949259118375853  0.5963091321810465  0.8285549916847033
  0.8988497944363142  0.5958506982449734  0.4884594350693466
  0.9033377369607605  0.5962977059262129  0.1651153773165648
  0.8548948684689132  0.8529186762851800  0.6580782741100828
  0.8437123746908044  0.8533509187001811  0.3385133839516922
  0.8499130918826752  0.8558621172318743  0.9935861825081185
  0.8540982716787769  0.3494729857922550  0.6611993817228936
  0.8485199490890681  0.3416553891708468  0.3298661990175961
  0.8588979945460545  0.3417441788540317 -0.0115897357628034
  0.6520833160116584  0.6350197013780985  0.6573112168881150
  0.6562978729097481  0.6495918964277790  0.3370162890862525
  0.6587245048116354  0.6555417313836726  0.0114106440386463
  0.6456550389426473  0.1484581411802600  0.6644707494785728
  0.6575347837799087  0.1513821610533588  0.3302218185638974
  0.6433512248632376  0.1623052455588803  1.0000241832644652
  0.5988528385561787  0.8983537054893609  0.8318393103585630
  0.5873505544687462  0.8905298151737444  0.5055271626109384
  0.6055852017330116  0.9033887639326940  0.1620763448893434
  0.5961771489823906  0.4042340558194464  0.8295157539856634
  0.6089998291296893  0.3994168517740262  0.5065346740430876
  0.5894194316230106  0.3888187218295525  0.1705016842593917
  0.4002550458372522  0.0990334413497804  0.8397884833225021
  0.3956233104957646  0.0880141808895640  0.4914750078370784
  0.3921136864530554  0.0923230638005458  0.1559396657767491
  0.4067056677731543  0.6020054268777679  0.8315024854954584
  0.4037582615650536  0.6096702173207276  0.5099964815678840
  0.4150299996143490  0.5849400075072991  0.1698693547019886
  0.3534452976878714  0.8460100192784505  0.6704892867846238
  0.3410989432775898  0.8509649110732237  0.3267823390930431
  0.3597240928702449  0.8411636580355839  0.0051791681079166
  0.3474346555387188  0.3475339213349860  0.6710556209633113
  0.3592824183539163  0.3468994676430370  0.3479085733713100
  0.3397456657454621  0.3665088644794613  0.0079131151698098
  0.1393900509962127  0.6625200766625535  0.6730172864546468
  0.1542527477302487  0.6437144337396556  0.3320589192444995
  0.1523350554551083  0.6428953140831023  1.0044557170028201
  0.1429212095673719  0.1628190625704820  0.6710842421270381
  0.1475725603197373  0.1563944743697187  0.3351599978430493
  0.1426317002603678  0.1784165084035697  1.0066661528721388
 
  0.47358471E-03  0.37093987E-02 -0.32765197E-03
  0.28396243E-04  0.37187123E-03 -0.78928990E-03
  0.48698449E-02  0.31185552E-02  0.11285044E-02
 -0.50467052E-02 -0.64531047E-03 -0.22684181E-02
 -0.74574322E-03 -0.33921727E-02 -0.18103799E-02
 -0.13395739E-03 -0.19812289E-02 -0.52789096E-02
  0.44003598E-02  0.44884264E-02 -0.56494643E-02
  0.32915424E-02 -0.13823771E-02  0.11449739E-02
  0.15486113E-02  0.28678852E-02  0.38473877E-02
 -0.79843485E-04 -0.22347396E-02  0.37105058E-02
  0.14880122E-02  0.11919484E-02 -0.11804767E-03
  0.69959811E-03 -0.20040623E-02  0.47228514E-02
 -0.36793280E-02  0.24134332E-02  0.20157700E-02
  0.10511909E-02 -0.11586629E-02  0.51993643E-03
 -0.72194797E-02  0.46337863E-02 -0.40891221E-02
 -0.23555103E-03 -0.52056489E-02  0.15569789E-03
 -0.51408274E-02 -0.16830300E-02 -0.20408758E-02
  0.14480099E-02  0.15676355E-02 -0.28470942E-02
  0.10764971E-02 -0.15317392E-02 -0.36387923E-02
 -0.27808593E-02  0.83120245E-04  0.25949850E-02
 -0.57685807E-02 -0.29767884E-02  0.15072245E-02
  0.50110372E-02 -0.79669251E-04 -0.46881991E-02
 -0.38561171E-02  0.19619381E-02 -0.79804473E-03
  0.44691072E-02  0.34906162E-02  0.44221697E-02
 -0.24555369E-02 -0.45426111E-02 -0.87998069E-03
  0.25683060E-02 -0.38159438E-03 -0.31178387E-02
  0.63075836E-02 -0.18298963E-02  0.60020637E-02
  0.13877242E-02 -0.31967561E-02  0.13895897E-02
 -0.70667420E-02 -0.57146717E-02 -0.88758720E-02
 -0.26208106E-03  0.57193803E-03  0.68063332E-02
 -0.76418795E-03  0.48567446E-02  0.68379377E-03
  0.21505509E-02  0.58828413E-03  0.20563310E-02
  0.61815255E-03  0.36618168E-02 -0.27602723E-02
  0.59105409E-02 -0.35291495E-02 -0.38744790E-02
  0.10734234E-02 -0.54844668E-03 -0.36514385E-02
 -0.98458122E-03 -0.11756576E-02  0.25267649E-02
  0.62922090E-02  0.57193926E-03 -0.23246196E-02
 -0.95449140E-03 -0.18103920E-02  0.39280364E-02
  0.34321523E-02  0.22744180E-02 -0.12364004E-02
  0.24132720E-02 -0.17470088E-02 -0.10396555E-02
  0.41176773E-03  0.44194919E-03  0.53376850E-02
 -0.75508317E-04  0.27919888E-02 -0.10259504E-02
 -0.18773568E-02 -0.25178466E-02  0.18047359E-02
 -0.29103371E-03  0.88616482E-02  0.41132062E-02
 -0.19016881E-02 -0.57979630E-03  0.28568446E-02
  0.72856626E-02  0.31732981E-02  0.45743606E-02
 -0.37488803E-03  0.83432272E-03 -0.29778918E-02
 -0.63506724E-02 -0.17552126E-02  0.10883097E-03
 -0.56552950E-03  0.39181890E-02  0.58764979E-02
  0.17900321E-02  0.56660247E-02 -0.18021733E-02
 -0.97678708E-03 -0.37781106E-02 -0.40599253E-02
 -0.53444839E-02 -0.59695888E-03  0.22778544E-02
 -0.33678343E-03 -0.61342887E-02 -0.70498440E-02
  0.20403641E-02 -0.17791816E-02 -0.17712579E-02
  0.18772591E-02 -0.80768029E-03 -0.47076039E-02
 -0.33241575E-02  0.16136802E-02 -0.23734361E-02
  0.71332380E-03 -0.55081566E-02 -0.37748267E-02
  0.19243403E-02  0.62113935E-02  0.54068039E-02
  0.64512161E-02  0.50273251E-03 -0.16918691E-02
  0.50831045E-02  0.41341919E-02  0.91721748E-03
 -0.11136883E-02 -0.17959219E-02 -0.67318766E-02
 -0.53813683E-02  0.40631124E-03  0.67242970E-02
  0.24010258E-02  0.11420045E-02 -0.24447787E-02
 -0.12371523E-03 -0.58556054E-02  0.10413540E-03
 -0.26754344E-02 -0.17812851E-02  0.92925955E-04
 -0.53486021E-02  0.39612409E-02  0.30364876E-02
 -0.10950654E-02  0.59298273E-03  0.60325931E-02
 -0.74482536E-03 -0.23134101E-02  0.39243059E-02
 -0.48137033E-02 -0.37665858E-03 -0.32095243E-02
  0.10944894E-02  0.55970031E-02  0.34735720E-02
 -0.53941834E-02 -0.39299303E-02  0.59679556E-02
  0.35513680E-02 -0.55818692E-02 -0.36722398E-02
 
           1
   1.00000000000000     
 -0.49510222E+00  0.73777309E-02  0.75113402E-02 -0.50254675E+00
  0.75036846E+00  0.75575740E+00  0.83542689E+00
  0.74233621E+00  0.74336021E+00  0.49368222E+00
  0.75647457E+00  0.75412113E+00  0.16555844E+00
  0.74563013E+00  0.25795840E+00  0.82435476E+00
  0.75380838E+00  0.24625779E+00  0.50238556E+00
  0.74888785E+00  0.25743962E+00  0.15843127E+00
  0.49341926E+00  0.50433057E+00  0.65878689E+00
  0.50544662E+00  0.49103532E+00  0.34582583E+00
  0.49919149E+00  0.48793280E+00  0.83466971E-02
  0.49675316E+00  0.99112794E+00  0.66833635E+00
  0.48665205E+00  0.99571093E+00  0.33101313E+00
  0.50119217E+00  0.99271850E+00  0.60479279E-02
  0.25407575E+00  0.75084514E+00  0.84086893E+00
  0.25006194E+00  0.74928135E+00  0.50771880E+00
  0.24800255E+00  0.73279997E+00  0.16212218E+00
  0.24447067E+00  0.25771480E+00  0.84345765E+00
  0.24689357E+00  0.24851419E+00  0.50617028E+00
  0.26098881E+00  0.26191228E+00  0.18423640E+00
  0.44752964E-02  0.49992187E+00  0.66076635E+00
  0.99289925E+00  0.50116080E+00  0.32761875E+00
  0.60284869E-02  0.48822121E+00  0.29599476E-04
  0.47630222E-02  0.29482041E-02  0.66743760E+00
  0.54127853E-02  0.43060814E-03  0.32859198E+00
  0.49704675E-03  0.12137801E-01  0.99326402E+00
  0.10879827E+00  0.90862339E+00  0.83251023E+00
  0.90852242E-01  0.89591032E+00  0.49273321E+00
  0.96897705E-01  0.90366421E+00  0.14693435E+00
  0.10538667E+00  0.40957088E+00  0.81812427E+00
  0.10208103E+00  0.39619200E+00  0.50443085E+00
  0.10692625E+00  0.41367192E+00  0.17407616E+00
  0.88259954E+00  0.95991156E-01  0.83015162E+00
  0.91063302E+00  0.10542953E+00  0.49996758E+00
  0.89653467E+00  0.99665068E-01  0.16522521E+00
  0.89556527E+00  0.59592737E+00  0.82813303E+00
  0.89896591E+00  0.59579137E+00  0.48806176E+00
  0.90323123E+00  0.59617053E+00  0.16539056E+00
  0.85557552E+00  0.85298054E+00  0.65782510E+00
  0.84360912E+00  0.85315508E+00  0.33894118E+00
  0.85028436E+00  0.85610815E+00  0.99345153E+00
  0.85435932E+00  0.34928401E+00  0.66108615E+00
  0.84856449E+00  0.34170320E+00  0.33044752E+00
  0.85888983E+00  0.34204620E+00  0.98829853E+00
  0.65188024E+00  0.63474734E+00  0.65750777E+00
  0.65626639E+00  0.65055049E+00  0.33746425E+00
  0.65851879E+00  0.65547901E+00  0.11721777E-01
  0.64644315E+00  0.14880141E+00  0.66496893E+00
  0.65749423E+00  0.15147241E+00  0.32989750E+00
  0.64266425E+00  0.16211538E+00  0.36035835E-04
  0.59879166E+00  0.89877755E+00  0.83247931E+00
  0.58754419E+00  0.89114273E+00  0.50533089E+00
  0.60547954E+00  0.90298007E+00  0.16163419E+00
  0.59559902E+00  0.40416948E+00  0.82976383E+00
  0.60896340E+00  0.39875329E+00  0.50576689E+00
  0.58964014E+00  0.38862626E+00  0.17030878E+00
  0.40045812E+00  0.98946072E-01  0.83927579E+00
  0.39526373E+00  0.88188738E-01  0.49121652E+00
  0.39219085E+00  0.91727228E-01  0.15552856E+00
  0.40691383E+00  0.60267733E+00  0.83209133E+00
  0.40445611E+00  0.60972460E+00  0.50981222E+00
  0.41557986E+00  0.58538722E+00  0.16996925E+00
  0.35332483E+00  0.84581575E+00  0.66975613E+00
  0.34051682E+00  0.85100886E+00  0.32751467E+00
  0.35998382E+00  0.84128719E+00  0.49129120E-02
  0.34742127E+00  0.34690050E+00  0.67106696E+00
  0.35899301E+00  0.34670678E+00  0.34791869E+00
  0.33916709E+00  0.36693737E+00  0.82438132E-02
  0.13927159E+00  0.66258422E+00  0.67367428E+00
  0.15417218E+00  0.64346418E+00  0.33248631E+00
  0.15181434E+00  0.64285457E+00  0.41061739E-02
  0.14303960E+00  0.16342451E+00  0.67146254E+00
  0.14698905E+00  0.15596936E+00  0.33580996E+00
  0.14301586E+00  0.17781270E+00  0.62662163E-02
  0.00000000E+00  0.00000000E+00  0.00000000E+00
  0.00000000E+00  0.00000000E+00  0.00000000E+00
  0.00000000E+00  0.00000000E+00  0.00000000E+00
  0.00000000E+00  0.00000000E+00  0.00000000E+00
  0.00000000E+00  0.00000000E+00  0.00000000E+00
  0.00000000E+00  0.00000000E+00  0.00000000E+00
  0.00000000E+00  0.00000000E+00  0.00000000E+00
  0.00000000E+00  0.00000000E+00  0.00000000E+00
  0.00000000E+00  0.00000000E+00  0.00000000E+00
  0.00000000E+00  0.00000000E+00  0.00000000E+00
  0.00000000E+00  0.00000000E+00  0.00000000E+00
  0.00000000E+00  0.00000000E+00  0.00000000E+00
  0.00000000E+00  0.00000000E+00  0.00000000E+00
  0.00000000E+00  0.00000000E+00  0.00000000E+00
  0.00000000E+00  0.00000000E+00  0.00000000E+00
  0.00000000E+00  0.00000000E+00  0.00000000E+00
  0.00000000E+00  0.00000000E+00  0.00000000E+00
  0.00000000E+00  0.00000000E+00  0.00000000E+00
  0.00000000E+00  0.00000000E+00  0.00000000E+00
  0.00000000E+00  0.00000000E+00  0.00000000E+00
  0.00000000E+00  0.00000000E+00  0.00000000E+00
  0.00000000E+00  0.00000000E+00  0.00000000E+00
  0.00000000E+00  0.00000000E+00  0.00000000E+00
  0.00000000E+00  0.00000000E+00  0.00000000E+00
  0.00000000E+00  0.00000000E+00  0.00000000E+00
  0.00000000E+00  0.00000000E+00  0.00000000E+00
  0.00000000E+00  0.00000000E+00  0.00000000E+00
  0.00000000E+00  0.00000000E+00  0.00000000E+00
  0.00000000E+00  0.00000000E+00  0.00000000E+00
  0.00000000E+00  0.00000000E+00  0.00000000E+00
  0.00000000E+00  0.00000000E+00  0.00000000E+00
  0.00000000E+00  0.00000000E+00  0.00000000E+00
  0.00000000E+00  0.00000000E+00  0.00000000E+00
  0.00000000E+00  0.00000000E+00  0.00000000E+00
  0.00000000E+00  0.00000000E+00  0.00000000E+00
  0.00000000E+00  0.00000000E+00  0.00000000E+00
  0.00000000E+00  0.00000000E+00  0.00000000E+00
  0.00000000E+00  0.00000000E+00  0.00000000E+00
  0.00000000E+00  0.00000000E+00  0.00000000E+00
  0.00000000E+00  0.00000000E+00  0.00000000E+00
  0.00000000E+00  0.00000000E+00  0.00000000E+00
  0.00000000E+00  0.00000000E+00  0.00000000E+00
  0.00000000E+00  0.00000000E+00  0.00000000E+00
  0.00000000E+00  0.00000000E+00  0.00000000E+00
  0.00000000E+00  0.00000000E+00  0.00000000E+00
  0.00000000E+00  0.00000000E+00  0.00000000E+00
  0.00000000E+00  0.00000000E+00  0.00000000E+00
  0.00000000E+00  0.00000000E+00  0.00000000E+00
  0.00000000E+00  0.00000000E+00  0.00000000E+00
  0.00000000E+00  0.00000000E+00  0.00000000E+00
  0.00000000E+00  0.00000000E+00  0.00000000E+00
  0.00000000E+00  0.00000000E+00  0.00000000E+00
  0.00000000E+00  0.00000000E+00  0.00000000E+00
  0.00000000E+00  0.00000000E+00  0.00000000E+00
  0.00000000E+00  0.00000000E+00  0.00000000E+00
  0.00000000E+00  0.00000000E+00  0.00000000E+00
  0.00000000E+00  0.00000000E+00  0.00000000E+00
  0.00000000E+00  0.00000000E+00  0.00000000E+00
  0.00000000E+00  0.00000000E+00  0.00000000E+00
  0.00000000E+00  0.00000000E+00  0.00000000E+00
  0.00000000E+00  0.00000000E+00  0.00000000E+00
  0.00000000E+00  0.00000000E+00  0.00000000E+00
  0.00000000E+00  0.00000000E+00  0.00000000E+00
  0.00000000E+00  0.00000000E+00  0.00000000E+00
  0.00000000E+00  0.00000000E+00  0.00000000E+00
  0.00000000E+00  0.00000000E+00  0.00000000E+00
  0.00000000E+00  0.00000000E+00  0.00000000E+00
  0.00000000E+00  0.00000000E+00  0.00000000E+00
  0.00000000E+00  0.00000000E+00  0.00000000E+00
  0.00000000E+00  0.00000000E+00  0.00000000E+00
  0.00000000E+00  0.00000000E+00  0.00000000E+00
  0.00000000E+00  0.00000000E+00  0.00000000E+00
  0.00000000E+00  0.00000000E+00  0.00000000E+00
  0.00000000E+00  0.00000000E+00  0.00000000E+00
  0.00000000E+00  0.00000000E+00  0.00000000E+00
  0.00000000E+00  0.00000000E+00  0.00000000E+00
  0.00000000E+00  0.00000000E+00  0.00000000E+00
  0.00000000E+00  0.00000000E+00  0.00000000E+00
  0.00000000E+00  0.00000000E+00  0.00000000E+00
  0.00000000E+00  0.00000000E+00  0.00000000E+00
  0.00000000E+00  0.00000000E+00  0.00000000E+00
  0.00000000E+00  0.00000000E+00  0.00000000E+00
  0.00000000E+00  0.00000000E+00  0.00000000E+00
  0.00000000E+00  0.00000000E+00  0.00000000E+00
  0.00000000E+00  0.00000000E+00  0.00000000E+00
  0.00000000E+00  0.00000000E+00  0.00000000E+00
  0.00000000E+00  0.00000000E+00  0.00000000E+00
  0.00000000E+00  0.00000000E+00  0.00000000E+00
  0.00000000E+00  0.00000000E+00  0.00000000E+00
  0.00000000E+00  0.00000000E+00  0.00000000E+00
  0.00000000E+00  0.00000000E+00  0.00000000E+00
  0.00000000E+00  0.00000000E+00  0.00000000E+00
  0.00000000E+00  0.00000000E+00  0.00000000E+00
  0.00000000E+00  0.00000000E+00  0.00000000E+00
  0.00000000E+00  0.00000000E+00  0.00000000E+00
  0.00000000E+00  0.00000000E+00  0.00000000E+00
  0.00000000E+00  0.00000000E+00  0.00000000E+00
  0.00000000E+00  0.00000000E+00  0.00000000E+00
  0.00000000E+00  0.00000000E+00  0.00000000E+00
  0.00000000E+00  0.00000000E+00  0.00000000E+00
  0.00000000E+00  0.00000000E+00  0.00000000E+00
  0.00000000E+00  0.00000000E+00  0.00000000E+00
  0.00000000E+00  0.00000000E+00  0.00000000E+00
  0.00000000E+00  0.00000000E+00  0.00000000E+00
  0.00000000E+00  0.00000000E+00  0.00000000E+00
  0.00000000E+00  0.00000000E+00  0.00000000E+00
  0.00000000E+00  0.00000000E+00  0.00000000E+00
  0.00000000E+00  0.00000000E+00  0.00000000E+00
  0.00000000E+00  0.00000000E+00  0.00000000E+00
  0.00000000E+00  0.00000000E+00  0.00000000E+00
  0.00000000E+00  0.00000000E+00  0.00000000E+00
  0.00000000E+00  0.00000000E+00  0.00000000E+00
  0.00000000E+00  0.00000000E+00  0.00000000E+00
  0.00000000E+00  0.00000000E+00  0.00000000E+00
  0.00000000E+00  0.00000000E+00  0.00000000E+00
  0.00000000E+00  0.00000000E+00  0.00000000E+00
  0.00000000E+00  0.00000000E+00  0.00000000E+00
  0.00000000E+00  0.00000000E+00  0.00000000E+00
  0.00000000E+00  0.00000000E+00  0.00000000E+00
  0.00000000E+00  0.00000000E+00  0.00000000E+00
  0.00000000E+00  0.00000000E+00  0.00000000E+00
  0.00000000E+00  0.00000000E+00  0.00000000E+00
  0.00000000E+00  0.00000000E+00  0.00000000E+00
  0.00000000E+00  0.00000000E+00  0.00000000E+00
  0.00000000E+00  0.00000000E+00  0.00000000E+00
  0.00000000E+00  0.00000000E+00  0.00000000E+00
  0.00000000E+00  0.00000000E+00  0.00000000E+00
  0.00000000E+00  0.00000000E+00  0.00000000E+00
  0.00000000E+00  0.00000000E+00  0.00000000E+00
  0.00000000E+00  0.00000000E+00  0.00000000E+00
  0.00000000E+00  0.00000000E+00  0.00000000E+00
  0.00000000E+00  0.00000000E+00  0.00000000E+00
  0.00000000E+00  0.00000000E+00  0.00000000E+00
  0.00000000E+00  0.00000000E+00  0.00000000E+00
  0.00000000E+00  0.00000000E+00  0.00000000E+00
  0.00000000E+00  0.00000000E+00  0.00000000E+00
  0.00000000E+00  0.00000000E+00  0.00000000E+00
  0.00000000E+00  0.00000000E+00  0.00000000E+00
  0.00000000E+00  0.00000000E+00  0.00000000E+00
  0.00000000E+00  0.00000000E+00  0.00000000E+00
  0.00000000E+00  0.00000000E+00  0.00000000E+00
  0.00000000E+00  0.00000000E+00  0.00000000E+00
  0.00000000E+00  0.00000000E+00  0.00000000E+00
  0.00000000E+00  0.00000000E+00  0.00000000E+00
