Zn2 F4                                                                                                                                                                        
1.0
        9.5679995346         0.0000000000         0.0000000000
        0.0000000000         9.5679995346         0.0000000000
        0.0000000000         0.0000000000         9.6039145660
   Zn    F
   24   48
Direct
     0.250000000         0.250000000         0.166666675
     0.250000000         0.250000000         0.500000000
     0.250000000         0.250000000         0.833333299
     0.250000000         0.749999975         0.166666675
     0.250000000         0.749999975         0.500000000
     0.250000000         0.749999975         0.833333299
     0.749999975         0.250000000         0.166666675
     0.749999975         0.250000000         0.500000000
     0.749999975         0.250000000         0.833333299
     0.749999975         0.749999975         0.166666675
     0.749999975         0.749999975         0.500000000
     0.749999975         0.749999975         0.833333299
     0.000000000         0.000000000         0.000000000
    -0.000000000        -0.000000000         0.333333350
    -0.000000000        -0.000000000         0.666666701
     0.000000000         0.500000000         0.000000000
    -0.000000000         0.500000000         0.333333350
    -0.000000000         0.500000000         0.666666701
     0.500000000         0.000000000         0.000000000
     0.500000000        -0.000000000         0.333333350
     0.500000000        -0.000000000         0.666666701
     0.500000000         0.500000000         0.000000000
     0.500000000         0.500000000         0.333333350
     0.500000000         0.500000000         0.666666701
     0.348325498         0.348325498         0.000000000
     0.348325498         0.348325498         0.333333350
     0.348325498         0.348325498         0.666666701
     0.348325498         0.848325498         0.000000000
     0.348325498         0.848325498         0.333333350
     0.348325498         0.848325498         0.666666701
     0.848325498         0.348325498         0.000000000
     0.848325498         0.348325498         0.333333350
     0.848325498         0.348325498         0.666666701
     0.848325498         0.848325498         0.000000000
     0.848325498         0.848325498         0.333333350
     0.848325498         0.848325498         0.666666701
     0.401674502         0.098325498         0.166666675
     0.401674502         0.098325498         0.500000000
     0.401674502         0.098325498         0.833333299
     0.401674502         0.598325473         0.166666675
     0.401674502         0.598325473         0.500000000
     0.401674502         0.598325473         0.833333299
     0.901674527         0.098325498         0.166666675
     0.901674527         0.098325498         0.500000000
     0.901674527         0.098325498         0.833333299
     0.901674527         0.598325473         0.166666675
     0.901674527         0.598325473         0.500000000
     0.901674527         0.598325473         0.833333299
     0.151674489         0.151674489         0.000000000
     0.151674489         0.151674489         0.333333350
     0.151674489         0.151674489         0.666666701
     0.151674489         0.651674502         0.000000000
     0.151674489         0.651674502         0.333333350
     0.151674489         0.651674502         0.666666701
     0.651674502         0.151674489         0.000000000
     0.651674502         0.151674489         0.333333350
     0.651674502         0.151674489         0.666666701
     0.651674502         0.651674502         0.000000000
     0.651674502         0.651674502         0.333333350
     0.651674502         0.651674502         0.666666701
     0.098325498         0.401674502         0.166666675
     0.098325498         0.401674502         0.500000000
     0.098325498         0.401674502         0.833333299
     0.098325498         0.901674527         0.166666675
     0.098325498         0.901674527         0.500000000
     0.098325498         0.901674527         0.833333299
     0.598325473         0.401674502         0.166666675
     0.598325473         0.401674502         0.500000000
     0.598325473         0.401674502         0.833333299
     0.598325473         0.901674527         0.166666675
     0.598325473         0.901674527         0.500000000
     0.598325473         0.901674527         0.833333299

