NaFNPT                                  
   1.00000000000000     
     9.4069619572559304    0.0031333384790655    0.0196151152233961
    -0.0000000000067388    9.4069678773824030    0.0233095823872160
    -0.0000000000027863   -0.0000000000036032    9.4069677853730909
   F    Na
    32    32
Direct
  0.2614370586091309  1.0042933818533251  0.0038282980927859
  0.2466040509819998 -0.0229818562885796  0.5017129027712010
  0.2531573026535864  0.5118956825317745  1.0040222154521403
  0.2384942967523253  0.4948342212075186  0.5033011113951298
  0.2755903083716070  0.2517963247336940  0.2513120759152948
  0.2689772233550929  0.2543394106160604  0.7496774725909117
  0.2473989947262158  0.7514889678269175  0.2631693925258483
  0.2361659783186360  0.7402689264629373  0.7689129839843774
 -0.0083874829861242  0.2520565782322167  0.0082120972334587
 -0.0054503827509864  0.2460654328073365  0.4866714417828231
  0.0121723721009882 -0.0050481665593756  0.2390978496410641
  1.0049273724620429  1.0071121638684759  0.7527921964027948
  0.0120167742421608  0.5190890148624138  0.2533965161563845
  0.9810422398003156  0.4863563607757078  0.7534728621724794
  1.0032619912837306  0.7575579073642719  1.0030257273645302
 -0.0159045225091554  0.7411274255668885  0.5116582510594081
  0.5158994996204508  0.2675660121411521 -0.0033264076325312
  0.5080483935239797  0.2497265445451987  0.4929993697957649
  0.5046720719424413  0.9910871238211933  0.2762942107459693
  0.4949676820619744  0.9714225635786029  0.7431381467421472
  0.5012701185911395  0.4906897329430728  0.2487294470154713
  0.5012875539150891  0.4876227562392897  0.7429425893887002
  0.4948481946883679  0.7569208458896319  0.9928664559311329
  0.4886175523274450  0.7477788250050345  0.4972979588503352
  0.7479262530954126 -0.0065098401793245  1.0220453404071579
  0.7452820347107254  0.9979332476298225  0.4893754731206792
  0.7391074865000439  0.5111984046553890 -0.0142634868523870
  0.7353661138106086  0.4934354525685364  0.4879185824203895
  0.7413814326820188  0.2512851012933262  0.2267981205383070
  0.7507417060190745  0.2591260051313617  0.7592835134088510
  0.7551153726430593  0.7345417486254547  0.2344518416173740
  0.7530851029693282  0.7743657929504048  0.7371134342424144
  0.2441591990291162  0.2617668833576410  1.0067820960089124
  0.2451179379791567  0.2689034835696376  0.4722008447818650
  0.2490372040164155  0.0002076561776260  0.2568970330026495
  0.2507710326142348 -0.0156013525752177  0.7458455768662479
  0.2666595027080938  0.5142794747327271  0.2464787618978846
  0.2532848660317609  0.5082423332064437  0.7732329523409548
  0.2442849563832623  0.7525253979753497 -0.0099011173493132
  0.2494798995493850  0.7433838953503696  0.5093854758293653
 -0.0070905043442812  0.0104203278824939 -0.0082666931482189
  1.0000425127158079 -0.0134794855842266  0.4930808618977890
  1.0162389173395323  0.5052533345333899 -0.0028121142833315
 -0.0030589789326557  0.4955010138648051  0.4970972224983080
  0.0180592288828270  0.2333054678701192  0.2457122627235055
 -0.0152440623690339  0.2541850065179307  0.7311791220633146
 -0.0100002805392573  0.7536056440362475  0.2463572822369076
  1.0017345757789762  0.7416294391866362  0.7508661623819791
  0.4904185649902807 -0.0025907908105530  0.0051601072381478
  0.4991788088209834  0.9951213598277321  0.5042565587052126
  0.5151484196481135  0.4896585299983941  1.0014295654368235
  0.5070206114171130  0.4955959345581198  0.4867091755612949
  0.5082778850134732  0.2509162226352135  0.2339357509965148
  0.4986025397822169  0.2469671049012604  0.7475099865251573
  0.5037085669296977  0.7501443905197084  0.2524951535848123
  0.4892531950633335  0.7433221994892613  0.7384717565689317
  0.7592637300049765  0.2670079143594216  0.9965040412500141
  0.7406800323509758  0.2481932186724941  0.5010579438077452
  0.7482819400699077  1.0069750072679224  0.2543925793537184
  0.7444443583630188  0.0048627560972064  0.7478053591498183
  0.7583848910003986  0.5054908782324784  0.2338535943901106
  0.7460216160602257  0.5074341551459903  0.7397793256036301
  0.7642635890706522  0.7574595216994633  0.0073657417853003
  0.7418117190293789  0.7537203134973063  0.4937794722694046
 
  0.26551951E-02  0.22721742E-02  0.46793939E-02
  0.12863136E-02 -0.34831910E-02  0.30196719E-02
 -0.85160142E-03  0.43639949E-03  0.27798996E-02
 -0.16064810E-02 -0.51837746E-02 -0.27532104E-02
 -0.38229870E-02  0.12409543E-02  0.39051501E-02
 -0.37906744E-02 -0.78330903E-02 -0.24290965E-02
  0.34890980E-02  0.43997970E-02 -0.12850036E-02
  0.30387730E-03 -0.63001367E-03  0.25495767E-02
  0.70201677E-02  0.27936764E-02  0.51689708E-03
  0.72112762E-04 -0.82350479E-03  0.18863115E-02
 -0.38838121E-02  0.61806710E-03 -0.12837226E-02
  0.14430532E-02  0.20903854E-02  0.23892635E-02
  0.33552243E-02 -0.35509610E-02 -0.46152332E-02
  0.66362156E-02  0.11852488E-02 -0.69455770E-02
  0.16873022E-02  0.46340916E-02  0.20064642E-02
 -0.27152550E-02 -0.46529024E-02 -0.41761966E-02
 -0.14180094E-03  0.12122663E-02 -0.69617229E-02
  0.12088188E-02 -0.52035726E-02  0.42682897E-02
  0.28183722E-02 -0.25246104E-02 -0.24675246E-02
  0.41782935E-02 -0.39468626E-02  0.29889547E-03
  0.45486606E-02 -0.18962872E-02 -0.16542495E-02
 -0.18648468E-02  0.29906591E-02  0.41162451E-02
 -0.64890289E-03  0.59029539E-03  0.10356061E-02
 -0.19800941E-02 -0.30397356E-02 -0.23537969E-02
  0.87684231E-03 -0.57708000E-03 -0.14591460E-02
  0.81200117E-03 -0.26979158E-02 -0.12387566E-02
  0.26428404E-02  0.73187416E-03 -0.50375378E-02
 -0.21081839E-02  0.14791128E-02 -0.17407677E-02
 -0.37183439E-02 -0.22836762E-02  0.12015198E-02
  0.77915727E-03 -0.89094293E-03  0.13031971E-02
 -0.41326504E-02 -0.50183532E-02 -0.47643246E-03
  0.23602592E-02 -0.48233084E-04  0.33741423E-02
  0.20090740E-02  0.25509585E-02  0.11872643E-02
  0.87492324E-02 -0.56804928E-03 -0.68998266E-03
  0.62494977E-02  0.98565501E-03 -0.23961325E-02
 -0.52510304E-02 -0.27465089E-03 -0.14260426E-03
  0.72660387E-03 -0.38930137E-02  0.29995386E-02
  0.11468948E-02 -0.80664750E-03  0.53702530E-02
 -0.31351683E-02  0.15024859E-02 -0.21776126E-02
 -0.24630581E-02 -0.32554974E-03  0.37017542E-02
 -0.45588353E-03  0.28573513E-02 -0.37532377E-02
  0.27025710E-02 -0.13440351E-02 -0.17143402E-02
 -0.11846771E-02  0.33886132E-02  0.14233589E-02
 -0.58267206E-02  0.29766001E-02  0.21403895E-02
  0.31768515E-02  0.20191924E-02 -0.52835643E-03
 -0.41844074E-02 -0.40089584E-02  0.88227456E-03
  0.19516773E-03  0.30105941E-02  0.39653364E-02
 -0.45083729E-02  0.68188042E-02 -0.20534449E-02
 -0.39268227E-02  0.11600108E-02  0.30900750E-02
 -0.45075910E-02 -0.14923914E-02 -0.45037597E-04
 -0.35478246E-02  0.96193865E-03  0.26260205E-02
 -0.28849090E-02 -0.31350203E-03 -0.25861616E-02
 -0.49284505E-03 -0.40074628E-02  0.28265579E-02
 -0.40441058E-02  0.53349091E-02 -0.18475237E-02
 -0.85932621E-03 -0.14952380E-02  0.95435510E-03
  0.20036710E-02  0.61645439E-02  0.54401969E-02
  0.28798045E-03 -0.27614817E-02 -0.35534876E-02
  0.36737323E-02  0.31653329E-02  0.57293195E-03
  0.20724595E-02  0.10693993E-02  0.30197206E-02
 -0.59234839E-02 -0.13845522E-03 -0.67450651E-03
 -0.14299448E-02  0.15134301E-03 -0.23568534E-02
 -0.49644395E-02  0.14763478E-02  0.91620053E-05
  0.47467873E-02  0.40405696E-02 -0.16345879E-02
  0.13890465E-02  0.52060465E-02 -0.49219436E-02
 
           1
   1.00000000000000     
 -0.42974420E+00 -0.58098723E-03  0.13816699E-02 -0.43014454E+00
  0.26171932E+00  0.45348295E-02  0.43245504E-02
  0.24674079E+00  0.97664782E+00  0.50203454E+00
  0.25306677E+00  0.51194210E+00  0.43178041E-02
  0.23832352E+00  0.49428322E+00  0.50301016E+00
  0.27518391E+00  0.25192838E+00  0.25172773E+00
  0.26857426E+00  0.25350685E+00  0.74942215E+00
  0.24776990E+00  0.75195656E+00  0.26303086E+00
  0.23619828E+00  0.74020194E+00  0.76918411E+00
  0.99235879E+00  0.25235331E+00  0.82647542E-02
  0.99455728E+00  0.24597789E+00  0.48687217E+00
  0.11759506E-01  0.99501767E+00  0.23896208E+00
  0.50807751E-02  0.73343295E-02  0.75304531E+00
  0.12373449E-01  0.51871141E+00  0.25290609E+00
  0.98174770E+00  0.48648212E+00  0.75273274E+00
  0.34413587E-02  0.75805047E+00  0.32374284E-02
  0.98380683E+00  0.74063290E+00  0.51121613E+00
  0.51588443E+00  0.26769489E+00  0.99593324E+00
  0.50817690E+00  0.24917334E+00  0.49345421E+00
  0.50497168E+00  0.99081865E+00  0.27603194E+00
  0.49541185E+00  0.97100285E+00  0.74317003E+00
  0.50175366E+00  0.49048799E+00  0.24855309E+00
  0.50108931E+00  0.48794074E+00  0.74337979E+00
  0.49477921E+00  0.75698362E+00  0.99297653E+00
  0.48840706E+00  0.74745576E+00  0.49704898E+00
  0.74801947E+00  0.99342878E+00  0.21890185E-01
  0.74536835E+00  0.99764642E+00  0.48924432E+00
  0.73938843E+00  0.51127611E+00  0.98520022E+00
  0.73514200E+00  0.49359276E+00  0.48773361E+00
  0.74098616E+00  0.25104247E+00  0.22692727E+00
  0.75082453E+00  0.25903127E+00  0.75942211E+00
  0.75467605E+00  0.73400842E+00  0.23440343E+00
  0.75333601E+00  0.77436058E+00  0.73747161E+00
  0.24437277E+00  0.26203799E+00  0.69071901E-02
  0.24604802E+00  0.26884279E+00  0.47212571E+00
  0.24970155E+00  0.31221414E-03  0.25664067E+00
  0.25021283E+00  0.98436964E+00  0.74583165E+00
  0.26673674E+00  0.51386561E+00  0.24679849E+00
  0.25340679E+00  0.50815654E+00  0.77380379E+00
  0.24395167E+00  0.75268523E+00  0.98986769E+00
  0.24921807E+00  0.74334938E+00  0.50977962E+00
  0.99286103E+00  0.10724092E-01  0.99133367E+00
  0.32980749E-03  0.98637754E+00  0.49289838E+00
  0.16112981E-01  0.50561360E+00  0.99733856E+00
  0.99632162E+00  0.49581765E+00  0.49732526E+00
  0.18396942E-01  0.23352000E+00  0.24565486E+00
  0.98431112E+00  0.25375899E+00  0.73127489E+00
  0.99002047E+00  0.75392568E+00  0.24677798E+00
  0.12553166E-02  0.74235447E+00  0.75064708E+00
  0.49000113E+00  0.99753266E+00  0.54891597E-02
  0.49869963E+00  0.99496287E+00  0.50425316E+00
  0.51477127E+00  0.48976091E+00  0.17092551E-02
  0.50671393E+00  0.49556271E+00  0.48643498E+00
  0.50822549E+00  0.25049023E+00  0.23423739E+00
  0.49817263E+00  0.24753437E+00  0.74731308E+00
  0.50361722E+00  0.74998547E+00  0.25259719E+00
  0.48946619E+00  0.74397745E+00  0.73904800E+00
  0.75929434E+00  0.26671435E+00  0.99612695E+00
  0.74107057E+00  0.24852958E+00  0.50111720E+00
  0.74850225E+00  0.70886155E-02  0.25471285E+00
  0.74381467E+00  0.48482475E-02  0.74773501E+00
  0.75823288E+00  0.50550702E+00  0.23360333E+00
  0.74549388E+00  0.50759127E+00  0.73978101E+00
  0.76476819E+00  0.75788888E+00  0.71898622E-02
  0.74195938E+00  0.75427369E+00  0.49325457E+00
  0.00000000E+00  0.00000000E+00  0.00000000E+00
  0.00000000E+00  0.00000000E+00  0.00000000E+00
  0.00000000E+00  0.00000000E+00  0.00000000E+00
  0.00000000E+00  0.00000000E+00  0.00000000E+00
  0.00000000E+00  0.00000000E+00  0.00000000E+00
  0.00000000E+00  0.00000000E+00  0.00000000E+00
  0.00000000E+00  0.00000000E+00  0.00000000E+00
  0.00000000E+00  0.00000000E+00  0.00000000E+00
  0.00000000E+00  0.00000000E+00  0.00000000E+00
  0.00000000E+00  0.00000000E+00  0.00000000E+00
  0.00000000E+00  0.00000000E+00  0.00000000E+00
  0.00000000E+00  0.00000000E+00  0.00000000E+00
  0.00000000E+00  0.00000000E+00  0.00000000E+00
  0.00000000E+00  0.00000000E+00  0.00000000E+00
  0.00000000E+00  0.00000000E+00  0.00000000E+00
  0.00000000E+00  0.00000000E+00  0.00000000E+00
  0.00000000E+00  0.00000000E+00  0.00000000E+00
  0.00000000E+00  0.00000000E+00  0.00000000E+00
  0.00000000E+00  0.00000000E+00  0.00000000E+00
  0.00000000E+00  0.00000000E+00  0.00000000E+00
  0.00000000E+00  0.00000000E+00  0.00000000E+00
  0.00000000E+00  0.00000000E+00  0.00000000E+00
  0.00000000E+00  0.00000000E+00  0.00000000E+00
  0.00000000E+00  0.00000000E+00  0.00000000E+00
  0.00000000E+00  0.00000000E+00  0.00000000E+00
  0.00000000E+00  0.00000000E+00  0.00000000E+00
  0.00000000E+00  0.00000000E+00  0.00000000E+00
  0.00000000E+00  0.00000000E+00  0.00000000E+00
  0.00000000E+00  0.00000000E+00  0.00000000E+00
  0.00000000E+00  0.00000000E+00  0.00000000E+00
  0.00000000E+00  0.00000000E+00  0.00000000E+00
  0.00000000E+00  0.00000000E+00  0.00000000E+00
  0.00000000E+00  0.00000000E+00  0.00000000E+00
  0.00000000E+00  0.00000000E+00  0.00000000E+00
  0.00000000E+00  0.00000000E+00  0.00000000E+00
  0.00000000E+00  0.00000000E+00  0.00000000E+00
  0.00000000E+00  0.00000000E+00  0.00000000E+00
  0.00000000E+00  0.00000000E+00  0.00000000E+00
  0.00000000E+00  0.00000000E+00  0.00000000E+00
  0.00000000E+00  0.00000000E+00  0.00000000E+00
  0.00000000E+00  0.00000000E+00  0.00000000E+00
  0.00000000E+00  0.00000000E+00  0.00000000E+00
  0.00000000E+00  0.00000000E+00  0.00000000E+00
  0.00000000E+00  0.00000000E+00  0.00000000E+00
  0.00000000E+00  0.00000000E+00  0.00000000E+00
  0.00000000E+00  0.00000000E+00  0.00000000E+00
  0.00000000E+00  0.00000000E+00  0.00000000E+00
  0.00000000E+00  0.00000000E+00  0.00000000E+00
  0.00000000E+00  0.00000000E+00  0.00000000E+00
  0.00000000E+00  0.00000000E+00  0.00000000E+00
  0.00000000E+00  0.00000000E+00  0.00000000E+00
  0.00000000E+00  0.00000000E+00  0.00000000E+00
  0.00000000E+00  0.00000000E+00  0.00000000E+00
  0.00000000E+00  0.00000000E+00  0.00000000E+00
  0.00000000E+00  0.00000000E+00  0.00000000E+00
  0.00000000E+00  0.00000000E+00  0.00000000E+00
  0.00000000E+00  0.00000000E+00  0.00000000E+00
  0.00000000E+00  0.00000000E+00  0.00000000E+00
  0.00000000E+00  0.00000000E+00  0.00000000E+00
  0.00000000E+00  0.00000000E+00  0.00000000E+00
  0.00000000E+00  0.00000000E+00  0.00000000E+00
  0.00000000E+00  0.00000000E+00  0.00000000E+00
  0.00000000E+00  0.00000000E+00  0.00000000E+00
  0.00000000E+00  0.00000000E+00  0.00000000E+00
  0.00000000E+00  0.00000000E+00  0.00000000E+00
  0.00000000E+00  0.00000000E+00  0.00000000E+00
  0.00000000E+00  0.00000000E+00  0.00000000E+00
  0.00000000E+00  0.00000000E+00  0.00000000E+00
  0.00000000E+00  0.00000000E+00  0.00000000E+00
  0.00000000E+00  0.00000000E+00  0.00000000E+00
  0.00000000E+00  0.00000000E+00  0.00000000E+00
  0.00000000E+00  0.00000000E+00  0.00000000E+00
  0.00000000E+00  0.00000000E+00  0.00000000E+00
  0.00000000E+00  0.00000000E+00  0.00000000E+00
  0.00000000E+00  0.00000000E+00  0.00000000E+00
  0.00000000E+00  0.00000000E+00  0.00000000E+00
  0.00000000E+00  0.00000000E+00  0.00000000E+00
  0.00000000E+00  0.00000000E+00  0.00000000E+00
  0.00000000E+00  0.00000000E+00  0.00000000E+00
  0.00000000E+00  0.00000000E+00  0.00000000E+00
  0.00000000E+00  0.00000000E+00  0.00000000E+00
  0.00000000E+00  0.00000000E+00  0.00000000E+00
  0.00000000E+00  0.00000000E+00  0.00000000E+00
  0.00000000E+00  0.00000000E+00  0.00000000E+00
  0.00000000E+00  0.00000000E+00  0.00000000E+00
  0.00000000E+00  0.00000000E+00  0.00000000E+00
  0.00000000E+00  0.00000000E+00  0.00000000E+00
  0.00000000E+00  0.00000000E+00  0.00000000E+00
  0.00000000E+00  0.00000000E+00  0.00000000E+00
  0.00000000E+00  0.00000000E+00  0.00000000E+00
  0.00000000E+00  0.00000000E+00  0.00000000E+00
  0.00000000E+00  0.00000000E+00  0.00000000E+00
  0.00000000E+00  0.00000000E+00  0.00000000E+00
  0.00000000E+00  0.00000000E+00  0.00000000E+00
  0.00000000E+00  0.00000000E+00  0.00000000E+00
  0.00000000E+00  0.00000000E+00  0.00000000E+00
  0.00000000E+00  0.00000000E+00  0.00000000E+00
  0.00000000E+00  0.00000000E+00  0.00000000E+00
  0.00000000E+00  0.00000000E+00  0.00000000E+00
  0.00000000E+00  0.00000000E+00  0.00000000E+00
  0.00000000E+00  0.00000000E+00  0.00000000E+00
  0.00000000E+00  0.00000000E+00  0.00000000E+00
  0.00000000E+00  0.00000000E+00  0.00000000E+00
  0.00000000E+00  0.00000000E+00  0.00000000E+00
  0.00000000E+00  0.00000000E+00  0.00000000E+00
  0.00000000E+00  0.00000000E+00  0.00000000E+00
  0.00000000E+00  0.00000000E+00  0.00000000E+00
  0.00000000E+00  0.00000000E+00  0.00000000E+00
  0.00000000E+00  0.00000000E+00  0.00000000E+00
  0.00000000E+00  0.00000000E+00  0.00000000E+00
  0.00000000E+00  0.00000000E+00  0.00000000E+00
  0.00000000E+00  0.00000000E+00  0.00000000E+00
  0.00000000E+00  0.00000000E+00  0.00000000E+00
  0.00000000E+00  0.00000000E+00  0.00000000E+00
  0.00000000E+00  0.00000000E+00  0.00000000E+00
  0.00000000E+00  0.00000000E+00  0.00000000E+00
  0.00000000E+00  0.00000000E+00  0.00000000E+00
  0.00000000E+00  0.00000000E+00  0.00000000E+00
  0.00000000E+00  0.00000000E+00  0.00000000E+00
  0.00000000E+00  0.00000000E+00  0.00000000E+00
  0.00000000E+00  0.00000000E+00  0.00000000E+00
  0.00000000E+00  0.00000000E+00  0.00000000E+00
  0.00000000E+00  0.00000000E+00  0.00000000E+00
  0.00000000E+00  0.00000000E+00  0.00000000E+00
  0.00000000E+00  0.00000000E+00  0.00000000E+00
  0.00000000E+00  0.00000000E+00  0.00000000E+00
  0.00000000E+00  0.00000000E+00  0.00000000E+00
  0.00000000E+00  0.00000000E+00  0.00000000E+00
