MgF2NPT2x2x3                            
   1.00000000000000     
     9.2444238980900000    0.0000000000000000    0.0000000000000000
     0.0000000000000000    9.2444238980900000    0.0000000000000000
     0.0000000000000000    0.0000000000000000    9.1820558111700006
   Mg   F 
    24    48
Direct
  0.7522226500682694  0.7475606521302262  0.8334311851242567
  0.7372638707366154  0.7443826246528193  0.4956974285417781
  0.7612723858590142  0.7503403335570974  0.1639309954718035
  0.7483755351172767  0.2540348967159414  0.8383724136549312
  0.7472937513306080  0.2670312649843884  0.5062380704207288
  0.7409256952992731  0.2464512593384953  0.1785820555187076
  0.4890110019648204  0.4972628531789528  0.6738906165626244
  0.4901695141370955  0.5158998223701791  0.3270932736698859
  0.4965789221127254  0.4991389667517414  0.9929379230392873
  0.5034223092968810  0.9876587446459619  0.6628059231554086
  0.5037894135144498  0.9950866505041847  0.3332104816376406
  0.5034914435004403 -0.0034554951236520  0.0063543952222135
  0.2380866302441502  0.7481974343218237  0.8228280015018600
  0.2477766010053815  0.7444014602224793  0.4991408291815292
  0.2553975993848754  0.7592622230459608  0.1589838151052169
  0.2478029895615561  0.2454949675428539  0.8166800828693117
  0.2533780863666436  0.2499245561547973  0.4975741565185389
  0.2565133339901103  0.2563704089228388  0.1641333516189040
 -0.0057632993709099  0.5026907210392824  0.6675005578341445
  0.0013437621202199  0.4912550453975580  0.3412127450742178
  0.0035275342824070  0.4884380861562994  1.0135619369980995
 -0.0146550089964635  1.0027025559178271  0.6688452400700383
  1.0074250063058101 -0.0035069064654669  0.3374843365299914
  0.9893226291018672  0.0155644686085872  0.0113910930069357
  0.0841858775105624  0.9012326951348574  0.8422516789577359
  0.1011649585777860  0.9048296049945040  0.5136343530990696
  0.1125260092428736  0.9064416640113895  0.1563501395779256
  0.1033673917700515  0.4149555515215133  0.8279867100087280
  0.1002210321970024  0.3909650615740767  0.5063254673569451
  0.1064892482339470  0.4036108453646022  0.1704794291980718
  0.8885036078801760  0.0991209855972363  0.8441045083654113
  0.9042198314080170  0.1062289816125843  0.5008956330371055
  0.9064380057330778  0.0933230613699730  0.1811887419498462
  0.8850582462650166  0.5921588606598348  0.8407054430631229
  0.8924875699932807  0.5976086800851939  0.5012133275172517
  0.9157107592389623  0.5935838958827795  0.1766546067433145
  0.8557971950079933  0.8351536442575508  0.6602609032019701
  0.8538265838064518  0.8465645329156111  0.3428295263142428
  0.8549925214532783  0.8511443636142751  1.0074819890011082
  0.8468974443350319  0.3487861800405753  0.6757309133092692
  0.8386325001641606  0.3658823551910346  0.3335830417764598
  0.8520435593494997  0.3405001637653771  0.0059437203408665
  0.6399888749965083  0.6623379145573084  0.6619136963464870
  0.6470882449706041  0.6475226537597600  0.3125139072207778
  0.6509619749243272  0.6349791742788237 -0.0014392231243624
  0.6665754574153451  0.1494104526141042  0.6584489829520952
  0.6550146948099445  0.1312893156691872  0.3475384650520819
  0.6463813354411343  0.1482719704083298  1.0031225111683586
  0.6066324369280062  0.9103135714920976  0.8379277247247915
  0.5920367746970041  0.8945259414670298  0.4973986405789483
  0.6172730163019259  0.9051154992127521  0.1712456086041726
  0.6069355641013898  0.4062434435069193  0.8367057399722976
  0.5975753230517156  0.4108085831070595  0.4887972694982076
  0.5860170930768958  0.4013519489738173  0.1702840186644880
  0.4024697091150037  0.0974826966202070  0.8148601887578774
  0.4059131281393488  0.1089773925566033  0.4876263264221743
  0.4138768759394315  0.1143790974585297  0.1710252220385639
  0.3965301412618221  0.5934032567793186  0.8334138338358306
  0.3936537477541521  0.5971658958814423  0.5127527833456760
  0.3921491003357602  0.5906239354945013  0.1582225597106313
  0.3542403944193110  0.8329290773574261  0.6728437518132360
  0.3731496242978197  0.8313201093475862  0.3157566995280489
  0.3494462388127614  0.8575471438724404 -0.0011252216073011
  0.3489476096337537  0.3441513600504332  0.6620460093314655
  0.3339437071659362  0.3717511626134222  0.3305662289946892
  0.3430452642198121  0.3547802160657509  0.9827119165345682
  0.1487015957335391  0.6531231266038287  0.6537974668662396
  0.1649400776965331  0.6542414879073861  0.3372329751702653
  0.1425256215807809  0.6536781457658363 -0.0049483216858854
  0.1432842725509377  0.1555245261450908  0.6615174389231991
  0.1666124536335762  0.1456243441380109  0.3298381840789199
  0.1703986065151570  0.1462227254210559  0.9945651363543477
 
 -0.35531783E-02  0.31403765E-02  0.24799634E-02
  0.97097830E-03 -0.69991880E-03 -0.21041733E-02
  0.23734038E-02 -0.14119448E-02 -0.90164608E-03
  0.10110050E-01 -0.89013495E-02  0.19102683E-02
  0.21331218E-02  0.17431080E-02  0.69122196E-02
  0.11791868E-02  0.21747940E-02  0.72367104E-03
  0.42739169E-02 -0.42284459E-02 -0.15525944E-03
  0.64764971E-02 -0.58449736E-02 -0.16459717E-02
  0.40130353E-02 -0.91502010E-02  0.11811155E-02
 -0.50116359E-02  0.12945293E-02  0.25119049E-02
  0.63322014E-03  0.78651169E-03 -0.16115999E-02
  0.10293712E-02  0.27744422E-02  0.76706855E-02
 -0.38381245E-03  0.13436947E-02  0.88605421E-03
  0.27348410E-02  0.80199996E-03  0.37278553E-02
  0.85014652E-03  0.34279937E-02 -0.26722220E-02
 -0.32906141E-02  0.10017696E-02 -0.17735034E-02
  0.21020724E-02  0.43162095E-03  0.92380177E-03
  0.17356632E-02  0.29054737E-02  0.37316291E-02
  0.36789901E-02 -0.26507223E-02  0.23390463E-02
 -0.28749201E-02  0.45065250E-02 -0.56749308E-02
  0.29597137E-02  0.59556661E-02 -0.17842730E-02
 -0.54037166E-03 -0.48345762E-02  0.40495611E-03
 -0.39800193E-02  0.20378012E-02 -0.31745918E-02
  0.53362995E-03 -0.20170754E-02 -0.63444028E-02
  0.76236109E-02  0.22631968E-02 -0.60937902E-02
  0.13002597E-02 -0.94033247E-03 -0.51128103E-02
 -0.32772296E-02 -0.31004485E-02  0.13095663E-01
 -0.54821369E-02  0.91427517E-02 -0.45655233E-02
  0.16171209E-02 -0.21876919E-02 -0.26954746E-02
  0.12559716E-02  0.56963058E-02  0.36413790E-02
  0.26871887E-03 -0.20890590E-03 -0.33367584E-03
  0.15697734E-02  0.31932808E-03  0.48405523E-03
  0.30556023E-02  0.17749123E-02 -0.40918796E-03
 -0.70558046E-02 -0.68809317E-02  0.25338484E-02
  0.18704442E-02 -0.97860908E-03  0.46118524E-02
 -0.65172186E-02 -0.28503211E-03  0.13868598E-02
  0.13135250E-02  0.46162021E-02 -0.30271299E-02
 -0.25649767E-02  0.91130240E-02  0.34990700E-03
 -0.57547307E-02  0.31760318E-02  0.61576161E-02
  0.11652555E-02  0.68506961E-03 -0.18983447E-02
  0.10775093E-02  0.14111892E-02 -0.89050809E-03
 -0.20058536E-02 -0.13267432E-02  0.52507344E-03
  0.86580333E-03 -0.28982918E-03 -0.34410541E-02
 -0.23756125E-02 -0.47736435E-02 -0.72679451E-02
 -0.25965318E-02 -0.50216114E-02 -0.98550864E-03
  0.15917257E-03 -0.23743223E-02 -0.11184779E-02
  0.10798044E-02  0.25256727E-02 -0.36436487E-02
 -0.14876062E-02  0.18757403E-02  0.92412176E-03
 -0.22677120E-02  0.13292772E-02 -0.22809675E-03
 -0.53416819E-02  0.93256542E-03 -0.42381978E-02
 -0.31430515E-02  0.19630914E-02  0.88723987E-03
  0.59646534E-03  0.43678053E-03 -0.23122734E-02
 -0.26492620E-02 -0.29427060E-02  0.82648912E-03
  0.59565102E-03 -0.73584047E-02  0.26058768E-03
  0.59396605E-02  0.44728142E-02 -0.26188752E-02
 -0.63247430E-02 -0.43304425E-02  0.43963702E-03
  0.31655224E-02 -0.25617726E-02  0.12273640E-02
 -0.66223632E-03  0.48452412E-02  0.10514854E-02
 -0.66612137E-02  0.98639405E-03 -0.43577939E-02
 -0.29205764E-02 -0.14687698E-02  0.41959205E-02
 -0.43118095E-02 -0.62152569E-03 -0.50626802E-02
  0.99086483E-03  0.38217576E-02  0.39085037E-02
 -0.55820943E-03 -0.10988770E-01 -0.56976786E-03
  0.45267934E-02  0.10783058E-02 -0.25211021E-02
  0.27926853E-02  0.84873415E-02  0.39406409E-02
 -0.39363705E-02 -0.16966645E-02  0.74146730E-02
  0.30655481E-02  0.42205551E-02 -0.30932407E-02
  0.43926034E-02 -0.19279928E-02  0.51052456E-03
 -0.26648641E-02  0.12961817E-02 -0.26473330E-02
 -0.56141355E-02 -0.39736085E-02  0.34653778E-02
  0.15444831E-02 -0.28055211E-02  0.40877153E-02
 -0.16770539E-02 -0.50048186E-03 -0.64667076E-02
 
           1
   1.00000000000000     
 -0.69640537E+00  0.16017546E-01  0.13770832E-01 -0.71129956E+00
  0.75183829E+00  0.74790036E+00  0.83370127E+00
  0.73736890E+00  0.74430691E+00  0.49546827E+00
  0.76152912E+00  0.75018760E+00  0.16383280E+00
  0.74946917E+00  0.25307201E+00  0.83858046E+00
  0.74752450E+00  0.26721982E+00  0.50699087E+00
  0.74105325E+00  0.24668651E+00  0.17866087E+00
  0.48947333E+00  0.49680545E+00  0.67387371E+00
  0.49087010E+00  0.51526755E+00  0.32691401E+00
  0.49701303E+00  0.49814916E+00  0.99306656E+00
  0.50288018E+00  0.98779878E+00  0.66307949E+00
  0.50385791E+00  0.99517173E+00  0.33303497E+00
  0.50360279E+00  0.99684463E+00  0.71897948E-02
  0.23804511E+00  0.74834279E+00  0.82292450E+00
  0.24807244E+00  0.74448822E+00  0.49954682E+00
  0.25548956E+00  0.75963304E+00  0.15869279E+00
  0.24744703E+00  0.24560333E+00  0.81648693E+00
  0.25360547E+00  0.24997125E+00  0.49767477E+00
  0.25670109E+00  0.25668470E+00  0.16453976E+00
  0.99463467E+00  0.50240398E+00  0.66775530E+00
  0.10327725E-02  0.49174253E+00  0.34059470E+00
  0.38476963E-02  0.48908233E+00  0.13367615E-01
  0.98528654E+00  0.21795838E-02  0.66888934E+00
  0.69944744E-02  0.99671353E+00  0.33713860E+00
  0.98938035E+00  0.15346275E-01  0.10700136E-01
  0.85010549E-01  0.90147751E+00  0.84158802E+00
  0.10130561E+00  0.90472789E+00  0.51307753E+00
  0.11217150E+00  0.90610628E+00  0.15777636E+00
  0.10277437E+00  0.41594455E+00  0.82748949E+00
  0.10039596E+00  0.39072841E+00  0.50603191E+00
  0.10662511E+00  0.40422703E+00  0.17087600E+00
  0.88853268E+00  0.99098388E-01  0.84406817E+00
  0.90438964E+00  0.10626352E+00  0.50094835E+00
  0.90676854E+00  0.93515060E-01  0.18114418E+00
  0.88429500E+00  0.59141453E+00  0.84098140E+00
  0.89268990E+00  0.59750282E+00  0.50171560E+00
  0.91500577E+00  0.59355306E+00  0.17680565E+00
  0.85593928E+00  0.83565299E+00  0.65993122E+00
  0.85354912E+00  0.84755032E+00  0.34286763E+00
  0.85437001E+00  0.85148793E+00  0.81526031E-02
  0.84702349E+00  0.34886029E+00  0.67552417E+00
  0.83874906E+00  0.36603501E+00  0.33348606E+00
  0.85182658E+00  0.34035665E+00  0.60009051E-02
  0.64008253E+00  0.66230656E+00  0.66153894E+00
  0.64683127E+00  0.64700627E+00  0.31172237E+00
  0.65068110E+00  0.63443597E+00  0.99845345E+00
  0.66659268E+00  0.14915361E+00  0.65832717E+00
  0.65513150E+00  0.13156253E+00  0.34714164E+00
  0.64622042E+00  0.14847488E+00  0.32231555E-02
  0.60638713E+00  0.91045736E+00  0.83790288E+00
  0.59145895E+00  0.89462682E+00  0.49693707E+00
  0.61693302E+00  0.90532785E+00  0.17134224E+00
  0.60700009E+00  0.40629069E+00  0.83645391E+00
  0.59728874E+00  0.41049026E+00  0.48888728E+00
  0.58608153E+00  0.40055597E+00  0.17031240E+00
  0.40311222E+00  0.97966536E-01  0.81457497E+00
  0.40522896E+00  0.10850895E+00  0.48767421E+00
  0.41421930E+00  0.11410198E+00  0.17115889E+00
  0.39645850E+00  0.59392738E+00  0.83352835E+00
  0.39293318E+00  0.59727260E+00  0.51227818E+00
  0.39183317E+00  0.59046505E+00  0.15867953E+00
  0.35377397E+00  0.83286184E+00  0.67229239E+00
  0.37325681E+00  0.83173352E+00  0.31618237E+00
  0.34938586E+00  0.85635845E+00  0.99881273E+00
  0.34943729E+00  0.34426800E+00  0.66177144E+00
  0.33424580E+00  0.37266927E+00  0.33099540E+00
  0.34261945E+00  0.35459668E+00  0.98351943E+00
  0.14903321E+00  0.65357968E+00  0.65346059E+00
  0.16541524E+00  0.65403293E+00  0.33728858E+00
  0.14223735E+00  0.65381836E+00  0.99476336E+00
  0.14267697E+00  0.15509469E+00  0.66189485E+00
  0.16677953E+00  0.14532086E+00  0.33028337E+00
  0.17021719E+00  0.14616859E+00  0.99386086E+00
  0.00000000E+00  0.00000000E+00  0.00000000E+00
  0.00000000E+00  0.00000000E+00  0.00000000E+00
  0.00000000E+00  0.00000000E+00  0.00000000E+00
  0.00000000E+00  0.00000000E+00  0.00000000E+00
  0.00000000E+00  0.00000000E+00  0.00000000E+00
  0.00000000E+00  0.00000000E+00  0.00000000E+00
  0.00000000E+00  0.00000000E+00  0.00000000E+00
  0.00000000E+00  0.00000000E+00  0.00000000E+00
  0.00000000E+00  0.00000000E+00  0.00000000E+00
  0.00000000E+00  0.00000000E+00  0.00000000E+00
  0.00000000E+00  0.00000000E+00  0.00000000E+00
  0.00000000E+00  0.00000000E+00  0.00000000E+00
  0.00000000E+00  0.00000000E+00  0.00000000E+00
  0.00000000E+00  0.00000000E+00  0.00000000E+00
  0.00000000E+00  0.00000000E+00  0.00000000E+00
  0.00000000E+00  0.00000000E+00  0.00000000E+00
  0.00000000E+00  0.00000000E+00  0.00000000E+00
  0.00000000E+00  0.00000000E+00  0.00000000E+00
  0.00000000E+00  0.00000000E+00  0.00000000E+00
  0.00000000E+00  0.00000000E+00  0.00000000E+00
  0.00000000E+00  0.00000000E+00  0.00000000E+00
  0.00000000E+00  0.00000000E+00  0.00000000E+00
  0.00000000E+00  0.00000000E+00  0.00000000E+00
  0.00000000E+00  0.00000000E+00  0.00000000E+00
  0.00000000E+00  0.00000000E+00  0.00000000E+00
  0.00000000E+00  0.00000000E+00  0.00000000E+00
  0.00000000E+00  0.00000000E+00  0.00000000E+00
  0.00000000E+00  0.00000000E+00  0.00000000E+00
  0.00000000E+00  0.00000000E+00  0.00000000E+00
  0.00000000E+00  0.00000000E+00  0.00000000E+00
  0.00000000E+00  0.00000000E+00  0.00000000E+00
  0.00000000E+00  0.00000000E+00  0.00000000E+00
  0.00000000E+00  0.00000000E+00  0.00000000E+00
  0.00000000E+00  0.00000000E+00  0.00000000E+00
  0.00000000E+00  0.00000000E+00  0.00000000E+00
  0.00000000E+00  0.00000000E+00  0.00000000E+00
  0.00000000E+00  0.00000000E+00  0.00000000E+00
  0.00000000E+00  0.00000000E+00  0.00000000E+00
  0.00000000E+00  0.00000000E+00  0.00000000E+00
  0.00000000E+00  0.00000000E+00  0.00000000E+00
  0.00000000E+00  0.00000000E+00  0.00000000E+00
  0.00000000E+00  0.00000000E+00  0.00000000E+00
  0.00000000E+00  0.00000000E+00  0.00000000E+00
  0.00000000E+00  0.00000000E+00  0.00000000E+00
  0.00000000E+00  0.00000000E+00  0.00000000E+00
  0.00000000E+00  0.00000000E+00  0.00000000E+00
  0.00000000E+00  0.00000000E+00  0.00000000E+00
  0.00000000E+00  0.00000000E+00  0.00000000E+00
  0.00000000E+00  0.00000000E+00  0.00000000E+00
  0.00000000E+00  0.00000000E+00  0.00000000E+00
  0.00000000E+00  0.00000000E+00  0.00000000E+00
  0.00000000E+00  0.00000000E+00  0.00000000E+00
  0.00000000E+00  0.00000000E+00  0.00000000E+00
  0.00000000E+00  0.00000000E+00  0.00000000E+00
  0.00000000E+00  0.00000000E+00  0.00000000E+00
  0.00000000E+00  0.00000000E+00  0.00000000E+00
  0.00000000E+00  0.00000000E+00  0.00000000E+00
  0.00000000E+00  0.00000000E+00  0.00000000E+00
  0.00000000E+00  0.00000000E+00  0.00000000E+00
  0.00000000E+00  0.00000000E+00  0.00000000E+00
  0.00000000E+00  0.00000000E+00  0.00000000E+00
  0.00000000E+00  0.00000000E+00  0.00000000E+00
  0.00000000E+00  0.00000000E+00  0.00000000E+00
  0.00000000E+00  0.00000000E+00  0.00000000E+00
  0.00000000E+00  0.00000000E+00  0.00000000E+00
  0.00000000E+00  0.00000000E+00  0.00000000E+00
  0.00000000E+00  0.00000000E+00  0.00000000E+00
  0.00000000E+00  0.00000000E+00  0.00000000E+00
  0.00000000E+00  0.00000000E+00  0.00000000E+00
  0.00000000E+00  0.00000000E+00  0.00000000E+00
  0.00000000E+00  0.00000000E+00  0.00000000E+00
  0.00000000E+00  0.00000000E+00  0.00000000E+00
  0.00000000E+00  0.00000000E+00  0.00000000E+00
  0.00000000E+00  0.00000000E+00  0.00000000E+00
  0.00000000E+00  0.00000000E+00  0.00000000E+00
  0.00000000E+00  0.00000000E+00  0.00000000E+00
  0.00000000E+00  0.00000000E+00  0.00000000E+00
  0.00000000E+00  0.00000000E+00  0.00000000E+00
  0.00000000E+00  0.00000000E+00  0.00000000E+00
  0.00000000E+00  0.00000000E+00  0.00000000E+00
  0.00000000E+00  0.00000000E+00  0.00000000E+00
  0.00000000E+00  0.00000000E+00  0.00000000E+00
  0.00000000E+00  0.00000000E+00  0.00000000E+00
  0.00000000E+00  0.00000000E+00  0.00000000E+00
  0.00000000E+00  0.00000000E+00  0.00000000E+00
  0.00000000E+00  0.00000000E+00  0.00000000E+00
  0.00000000E+00  0.00000000E+00  0.00000000E+00
  0.00000000E+00  0.00000000E+00  0.00000000E+00
  0.00000000E+00  0.00000000E+00  0.00000000E+00
  0.00000000E+00  0.00000000E+00  0.00000000E+00
  0.00000000E+00  0.00000000E+00  0.00000000E+00
  0.00000000E+00  0.00000000E+00  0.00000000E+00
  0.00000000E+00  0.00000000E+00  0.00000000E+00
  0.00000000E+00  0.00000000E+00  0.00000000E+00
  0.00000000E+00  0.00000000E+00  0.00000000E+00
  0.00000000E+00  0.00000000E+00  0.00000000E+00
  0.00000000E+00  0.00000000E+00  0.00000000E+00
  0.00000000E+00  0.00000000E+00  0.00000000E+00
  0.00000000E+00  0.00000000E+00  0.00000000E+00
  0.00000000E+00  0.00000000E+00  0.00000000E+00
  0.00000000E+00  0.00000000E+00  0.00000000E+00
  0.00000000E+00  0.00000000E+00  0.00000000E+00
  0.00000000E+00  0.00000000E+00  0.00000000E+00
  0.00000000E+00  0.00000000E+00  0.00000000E+00
  0.00000000E+00  0.00000000E+00  0.00000000E+00
  0.00000000E+00  0.00000000E+00  0.00000000E+00
  0.00000000E+00  0.00000000E+00  0.00000000E+00
  0.00000000E+00  0.00000000E+00  0.00000000E+00
  0.00000000E+00  0.00000000E+00  0.00000000E+00
  0.00000000E+00  0.00000000E+00  0.00000000E+00
  0.00000000E+00  0.00000000E+00  0.00000000E+00
  0.00000000E+00  0.00000000E+00  0.00000000E+00
  0.00000000E+00  0.00000000E+00  0.00000000E+00
  0.00000000E+00  0.00000000E+00  0.00000000E+00
  0.00000000E+00  0.00000000E+00  0.00000000E+00
  0.00000000E+00  0.00000000E+00  0.00000000E+00
  0.00000000E+00  0.00000000E+00  0.00000000E+00
  0.00000000E+00  0.00000000E+00  0.00000000E+00
  0.00000000E+00  0.00000000E+00  0.00000000E+00
  0.00000000E+00  0.00000000E+00  0.00000000E+00
  0.00000000E+00  0.00000000E+00  0.00000000E+00
  0.00000000E+00  0.00000000E+00  0.00000000E+00
  0.00000000E+00  0.00000000E+00  0.00000000E+00
  0.00000000E+00  0.00000000E+00  0.00000000E+00
  0.00000000E+00  0.00000000E+00  0.00000000E+00
  0.00000000E+00  0.00000000E+00  0.00000000E+00
  0.00000000E+00  0.00000000E+00  0.00000000E+00
  0.00000000E+00  0.00000000E+00  0.00000000E+00
  0.00000000E+00  0.00000000E+00  0.00000000E+00
  0.00000000E+00  0.00000000E+00  0.00000000E+00
  0.00000000E+00  0.00000000E+00  0.00000000E+00
  0.00000000E+00  0.00000000E+00  0.00000000E+00
  0.00000000E+00  0.00000000E+00  0.00000000E+00
  0.00000000E+00  0.00000000E+00  0.00000000E+00
  0.00000000E+00  0.00000000E+00  0.00000000E+00
  0.00000000E+00  0.00000000E+00  0.00000000E+00
  0.00000000E+00  0.00000000E+00  0.00000000E+00
  0.00000000E+00  0.00000000E+00  0.00000000E+00
  0.00000000E+00  0.00000000E+00  0.00000000E+00
  0.00000000E+00  0.00000000E+00  0.00000000E+00
  0.00000000E+00  0.00000000E+00  0.00000000E+00
  0.00000000E+00  0.00000000E+00  0.00000000E+00
  0.00000000E+00  0.00000000E+00  0.00000000E+00
  0.00000000E+00  0.00000000E+00  0.00000000E+00
