NaFNPT                                  
   1.00000000000000     
     9.4069619572559304    0.0031333384790655    0.0196151152233961
    -0.0000000000067388    9.4069678773824030    0.0233095823872160
    -0.0000000000027863   -0.0000000000036032    9.4069677853730909
   F    Na
    32    32
Direct
  0.2493215945316778  0.0119137792785014  1.0032000402307424
  0.2656566302367140  1.0113777987039936  0.4958708227047440
  0.2608669644212654  0.5173371435834663  0.9922721728768029
  0.2336498814176968  0.4954052638764994  0.4947016036415163
  0.2365343031558650  0.2778831900754082  0.2370576764270490
  0.2509545355632413  0.2376480968472523  0.7335331600674763
  0.2375869020335435  0.7671704668584499  0.2455583943026085
  0.2348792794716682  0.7317301767850765  0.7389492629188301
  1.0067986007395979  0.2695009421103955  0.0181681687967767
  0.0262704949290051  0.2491349850446675  0.5176703218023472
  0.0035477412679488  0.9960819951559469  0.2550266182073361
  0.9896793288612828  1.0092008615994330  0.7631897515296215
 -0.0137912819084826  0.4995052746056323  0.2572108841114028
  1.0029229609234047  0.4756479769055004  0.7277069790066397
  0.0054893798972073  0.7549599671239804  1.0051952104548638
 -0.0340169203424291  0.7410870575081741  0.5015255988687316
  0.4989209202774649  0.2561483050498952  0.9876413388557308
  0.4943460593369501  0.2542643831010219  0.4708165142906164
  0.5077410492338934 -0.0029089685610201  0.2397535346464568
  0.4947816385455292  0.0060489727345555  0.7406379642014067
  0.5210916235569120  0.5082805602772014  0.2507697564080747
  0.5012151941042994  0.5192545856294714  0.7426895387308572
  0.5140833573072056  0.7628600456638923 -0.0089186405796741
  0.4905058005913420  0.7519863466832455  0.5001228119203800
  0.7486238322897247  1.0029876920398690 -0.0013768334297800
  0.7505086981146718 -0.0041513769612183  0.5118714347170888
  0.7657349605124211  0.4891168573424113  0.9949349280751986
  0.7433467924450127  0.5085240769474478  0.4850390984776674
  0.7549904449891560  0.2403968203566737  0.2684946688554788
  0.7415915822510990  0.2505327286400588  0.7400355688180656
  0.7466694789242384  0.7673293903693081  0.2458921948428298
  0.7587802650135660  0.7380507521851630  0.7593716840001608
  0.2459134851533310  0.2412177755226480  0.9926643423030401
  0.2635625205789919  0.2481328144851497  0.5005864463094083
  0.2462181759300433  0.0119226516880220  0.2529093676683848
  0.2610931758214120 -0.0074551978907812  0.7542907609283108
  0.2556565206700745  0.5125169797101659  0.2427810057858848
  0.2471721150724599  0.4794391772763137  0.7413992248404394
  0.2425072402427993  0.7371015276429081  1.0012090988363251
  0.2481828195991360  0.7511838956424595  0.5032346499098066
  0.0143678818635901  0.9906957031985439 -0.0054301086732449
 -0.0074255521701947 -0.0143549807991487  0.5146234532836897
  0.0035763165659971  0.4956933140575919  1.0124275856660729
  0.9788727107411914  0.5004680188834074  0.4859685080864523
  0.0084612127084569  0.2529152891789699  0.2706466576434565
  0.9966001214591398  0.2403395345477971  0.7537824695478824
  0.0098364116913899  0.7399096281258595  0.2538335525029062
  0.9884198319824083  0.7341227704414224  0.7549862942916074
  0.5036303639104741  0.0069378204103167  1.0048668914980912
  0.5039474135605206  0.0074349371754387  0.4840479756317513
  0.5268005034591380  0.5138989535098408  1.0063042682481518
  0.5024455924377017  0.5208760921996842  0.4881020029840486
  0.5083276998691965  0.2450354686842214  0.2286129241813838
  0.4823690600553289  0.2616916015428253  0.7468915487225833
  0.5104693017485790  0.7517506587425812  0.2528694959218855
  0.4813869010516484  0.7509842693078295  0.7496884219501353
  0.7638819136824133  0.2384765551556003  0.0163480141747603
  0.7372790548297864  0.2353713509281797  0.4922911141339079
  0.7621382209455102  0.9973412044300303  0.2482007867302178
  0.7353950868774602 -0.0137858087552271  0.7472342273092790
  0.7724113168741145  0.4705145397173043  0.2504043789005255
  0.7412309931903129  0.4786302314319040  0.7487256239914619
  0.7453442608934611  0.7532506958121097 -0.0097659910655236
  0.7379678266162083  0.7498382222917962  0.5026282385995132
 
 -0.34102313E-04 -0.27762271E-02 -0.26988979E-02
 -0.41777229E-02 -0.13351885E-02  0.19628495E-02
 -0.14044831E-02 -0.42819086E-02  0.12718020E-02
  0.19652541E-02 -0.26913241E-02 -0.22615627E-02
 -0.61598509E-03 -0.97617496E-02  0.48068899E-02
  0.31533201E-02  0.70363251E-02  0.12607693E-02
 -0.12092937E-02  0.41425157E-03  0.24289200E-03
 -0.25022789E-02  0.45657340E-02 -0.39081494E-02
  0.41834256E-02 -0.65127147E-03  0.35673776E-02
 -0.51083394E-02  0.58638628E-02 -0.57900796E-02
  0.25488581E-02 -0.18583175E-02 -0.11618972E-02
 -0.37157432E-02  0.47628767E-03  0.68745952E-02
 -0.51293589E-02 -0.42425650E-02 -0.12341288E-02
 -0.79414084E-03 -0.31077858E-03 -0.10871446E-02
 -0.27160721E-02  0.25240187E-02 -0.19145703E-02
  0.53690156E-02  0.63274792E-02  0.31392242E-02
  0.26437448E-02 -0.15838984E-02  0.32553566E-02
  0.18764803E-02 -0.51536844E-02  0.11969887E-03
  0.40765141E-02 -0.51212753E-03  0.89833986E-03
  0.14401282E-02  0.35296995E-02  0.18304892E-02
 -0.31233140E-02  0.17037128E-02 -0.30195938E-03
  0.19723606E-02 -0.53416258E-03  0.30887493E-03
  0.13337255E-02  0.24937008E-02  0.19683947E-02
  0.23713960E-02 -0.59840043E-03  0.10135767E-02
  0.30896060E-02 -0.26792231E-02  0.30715717E-02
  0.17274544E-02 -0.38443709E-02 -0.43224082E-02
 -0.10682990E-02  0.98398601E-03  0.15834831E-02
  0.25388732E-02 -0.19109182E-02 -0.25097936E-02
  0.13559548E-02  0.28275863E-02 -0.16510443E-02
 -0.56201181E-02 -0.16620778E-02  0.12894349E-02
  0.49854187E-02 -0.52993798E-02  0.47113325E-02
 -0.59207346E-02 -0.46969470E-02 -0.23341474E-02
 -0.21178009E-03  0.21087345E-02  0.22203414E-02
  0.59992118E-02 -0.14016174E-02 -0.17408934E-02
 -0.60286493E-02 -0.78965482E-02  0.25582794E-02
  0.73619581E-02  0.23035755E-03  0.44118182E-02
 -0.76427801E-03  0.63342156E-02 -0.27514134E-02
  0.25887735E-02  0.14286390E-02 -0.14463266E-02
 -0.17816585E-04  0.22865251E-03  0.40110687E-02
 -0.86678406E-03 -0.68998863E-02  0.17067148E-02
 -0.44192706E-02  0.27425234E-02 -0.38897606E-02
  0.45706753E-03  0.13606743E-03 -0.18980433E-02
  0.56068211E-03  0.55305751E-02 -0.11296170E-02
 -0.95266515E-04 -0.44908302E-02 -0.10282774E-03
  0.46322798E-04  0.51057072E-02 -0.47970413E-02
 -0.79867704E-02  0.47711941E-02  0.34295409E-02
  0.24489778E-02  0.13048983E-02 -0.29149144E-02
 -0.36825452E-02  0.54879682E-02 -0.37534322E-03
  0.29830600E-02  0.14401125E-02 -0.29742848E-02
 -0.74335388E-03  0.20353910E-02 -0.36363088E-02
  0.38300150E-02 -0.82926448E-03  0.16753370E-02
 -0.10134654E-02 -0.50761263E-02  0.64011918E-02
 -0.70920019E-02 -0.83180424E-03 -0.44218186E-03
  0.16272977E-02  0.17278955E-02  0.53484267E-04
 -0.68493420E-02 -0.26495142E-03 -0.18453564E-02
  0.44054066E-02 -0.24390344E-02 -0.84577322E-03
  0.12571962E-02  0.36005436E-03 -0.19001950E-02
 -0.94716695E-03  0.16536940E-03 -0.63036361E-02
 -0.29816338E-02  0.43476061E-02  0.98366204E-03
  0.63817796E-02  0.17638446E-02 -0.23866917E-02
  0.15622698E-02  0.55113220E-03  0.27008908E-03
 -0.77467230E-03  0.28658594E-02  0.16747637E-02
  0.24525781E-02  0.56726919E-03 -0.11271100E-02
 -0.37130129E-02  0.24007283E-03 -0.14115163E-02
 
           1
   1.00000000000000     
 -0.56324888E+00  0.53243265E-02  0.59967013E-02 -0.56890939E+00
  0.24931797E+00  0.11618656E-01  0.29138750E-02
  0.26521252E+00  0.11236011E-01  0.49608076E+00
  0.26071766E+00  0.51688201E+00  0.99240881E+00
  0.23385880E+00  0.49511910E+00  0.49446146E+00
  0.23646882E+00  0.27684550E+00  0.23757138E+00
  0.25128975E+00  0.23839598E+00  0.73366463E+00
  0.23745835E+00  0.76721455E+00  0.24558437E+00
  0.23461328E+00  0.73221562E+00  0.73853316E+00
  0.72433166E-02  0.26943156E+00  0.18546641E-01
  0.25727457E-01  0.24975852E+00  0.51705440E+00
  0.38186957E-02  0.99588436E+00  0.25490303E+00
  0.98928433E+00  0.92516245E-02  0.76392125E+00
  0.98566345E+00  0.49905445E+00  0.25708195E+00
  0.28385404E-02  0.47561497E+00  0.72759167E+00
  0.52006499E-02  0.75522838E+00  0.49916206E-02
  0.96655383E+00  0.74175950E+00  0.50185646E+00
  0.49920196E+00  0.25597984E+00  0.98798723E+00
  0.49454554E+00  0.25371646E+00  0.47083018E+00
  0.50817440E+00  0.99703645E+00  0.23984826E+00
  0.49493473E+00  0.64241436E-02  0.74083130E+00
  0.52075960E+00  0.50846178E+00  0.25073790E+00
  0.50142486E+00  0.51919773E+00  0.74272208E+00
  0.51422514E+00  0.76312509E+00  0.99128966E+00
  0.49075789E+00  0.75192265E+00  0.50023019E+00
  0.74895227E+00  0.27027700E-02  0.99894971E+00
  0.75069233E+00  0.99543989E+00  0.51141257E+00
  0.76562140E+00  0.48922150E+00  0.99510324E+00
  0.74361669E+00  0.50832085E+00  0.48477224E+00
  0.75513459E+00  0.24069736E+00  0.26831811E+00
  0.74099414E+00  0.25035624E+00  0.74017432E+00
  0.74719945E+00  0.76676587E+00  0.24639332E+00
  0.75815087E+00  0.73755166E+00  0.75912610E+00
  0.24589097E+00  0.24144195E+00  0.99289987E+00
  0.26420026E+00  0.24798360E+00  0.50040042E+00
  0.24557730E+00  0.11083429E-01  0.25318474E+00
  0.26187578E+00  0.99256903E+00  0.75475806E+00
  0.25557527E+00  0.51319036E+00  0.24248702E+00
  0.24744731E+00  0.47959096E+00  0.74124452E+00
  0.24250535E+00  0.73712583E+00  0.16354359E-02
  0.24809068E+00  0.75045044E+00  0.50341809E+00
  0.13898095E-01  0.99098740E+00  0.99415665E+00
  0.99262304E+00  0.98565947E+00  0.51442155E+00
  0.36359195E-02  0.49628122E+00  0.12305922E-01
  0.97886258E+00  0.49999063E+00  0.48595878E+00
  0.84661370E-02  0.25345805E+00  0.27013536E+00
  0.99575109E+00  0.24084702E+00  0.75414756E+00
  0.10096748E-01  0.74004826E+00  0.25352280E+00
  0.98802836E+00  0.73470629E+00  0.75494576E+00
  0.50394748E+00  0.70908048E-02  0.45496723E-02
  0.50386839E+00  0.76513341E-02  0.48366105E+00
  0.52720765E+00  0.51381066E+00  0.64817334E-02
  0.50233786E+00  0.52033651E+00  0.48878404E+00
  0.50757379E+00  0.24494730E+00  0.22856771E+00
  0.48254205E+00  0.26187523E+00  0.74689642E+00
  0.50974119E+00  0.75172274E+00  0.25267491E+00
  0.48185521E+00  0.75072483E+00  0.74959818E+00
  0.76401556E+00  0.23851479E+00  0.16145642E-01
  0.73717837E+00  0.23538896E+00  0.49162118E+00
  0.76182126E+00  0.99780348E+00  0.24830487E+00
  0.73607350E+00  0.98640147E+00  0.74697863E+00
  0.77257739E+00  0.47057307E+00  0.25043260E+00
  0.74114864E+00  0.47893491E+00  0.74890308E+00
  0.74560498E+00  0.75331091E+00  0.99011350E+00
  0.73757312E+00  0.74986387E+00  0.50247895E+00
  0.00000000E+00  0.00000000E+00  0.00000000E+00
  0.00000000E+00  0.00000000E+00  0.00000000E+00
  0.00000000E+00  0.00000000E+00  0.00000000E+00
  0.00000000E+00  0.00000000E+00  0.00000000E+00
  0.00000000E+00  0.00000000E+00  0.00000000E+00
  0.00000000E+00  0.00000000E+00  0.00000000E+00
  0.00000000E+00  0.00000000E+00  0.00000000E+00
  0.00000000E+00  0.00000000E+00  0.00000000E+00
  0.00000000E+00  0.00000000E+00  0.00000000E+00
  0.00000000E+00  0.00000000E+00  0.00000000E+00
  0.00000000E+00  0.00000000E+00  0.00000000E+00
  0.00000000E+00  0.00000000E+00  0.00000000E+00
  0.00000000E+00  0.00000000E+00  0.00000000E+00
  0.00000000E+00  0.00000000E+00  0.00000000E+00
  0.00000000E+00  0.00000000E+00  0.00000000E+00
  0.00000000E+00  0.00000000E+00  0.00000000E+00
  0.00000000E+00  0.00000000E+00  0.00000000E+00
  0.00000000E+00  0.00000000E+00  0.00000000E+00
  0.00000000E+00  0.00000000E+00  0.00000000E+00
  0.00000000E+00  0.00000000E+00  0.00000000E+00
  0.00000000E+00  0.00000000E+00  0.00000000E+00
  0.00000000E+00  0.00000000E+00  0.00000000E+00
  0.00000000E+00  0.00000000E+00  0.00000000E+00
  0.00000000E+00  0.00000000E+00  0.00000000E+00
  0.00000000E+00  0.00000000E+00  0.00000000E+00
  0.00000000E+00  0.00000000E+00  0.00000000E+00
  0.00000000E+00  0.00000000E+00  0.00000000E+00
  0.00000000E+00  0.00000000E+00  0.00000000E+00
  0.00000000E+00  0.00000000E+00  0.00000000E+00
  0.00000000E+00  0.00000000E+00  0.00000000E+00
  0.00000000E+00  0.00000000E+00  0.00000000E+00
  0.00000000E+00  0.00000000E+00  0.00000000E+00
  0.00000000E+00  0.00000000E+00  0.00000000E+00
  0.00000000E+00  0.00000000E+00  0.00000000E+00
  0.00000000E+00  0.00000000E+00  0.00000000E+00
  0.00000000E+00  0.00000000E+00  0.00000000E+00
  0.00000000E+00  0.00000000E+00  0.00000000E+00
  0.00000000E+00  0.00000000E+00  0.00000000E+00
  0.00000000E+00  0.00000000E+00  0.00000000E+00
  0.00000000E+00  0.00000000E+00  0.00000000E+00
  0.00000000E+00  0.00000000E+00  0.00000000E+00
  0.00000000E+00  0.00000000E+00  0.00000000E+00
  0.00000000E+00  0.00000000E+00  0.00000000E+00
  0.00000000E+00  0.00000000E+00  0.00000000E+00
  0.00000000E+00  0.00000000E+00  0.00000000E+00
  0.00000000E+00  0.00000000E+00  0.00000000E+00
  0.00000000E+00  0.00000000E+00  0.00000000E+00
  0.00000000E+00  0.00000000E+00  0.00000000E+00
  0.00000000E+00  0.00000000E+00  0.00000000E+00
  0.00000000E+00  0.00000000E+00  0.00000000E+00
  0.00000000E+00  0.00000000E+00  0.00000000E+00
  0.00000000E+00  0.00000000E+00  0.00000000E+00
  0.00000000E+00  0.00000000E+00  0.00000000E+00
  0.00000000E+00  0.00000000E+00  0.00000000E+00
  0.00000000E+00  0.00000000E+00  0.00000000E+00
  0.00000000E+00  0.00000000E+00  0.00000000E+00
  0.00000000E+00  0.00000000E+00  0.00000000E+00
  0.00000000E+00  0.00000000E+00  0.00000000E+00
  0.00000000E+00  0.00000000E+00  0.00000000E+00
  0.00000000E+00  0.00000000E+00  0.00000000E+00
  0.00000000E+00  0.00000000E+00  0.00000000E+00
  0.00000000E+00  0.00000000E+00  0.00000000E+00
  0.00000000E+00  0.00000000E+00  0.00000000E+00
  0.00000000E+00  0.00000000E+00  0.00000000E+00
  0.00000000E+00  0.00000000E+00  0.00000000E+00
  0.00000000E+00  0.00000000E+00  0.00000000E+00
  0.00000000E+00  0.00000000E+00  0.00000000E+00
  0.00000000E+00  0.00000000E+00  0.00000000E+00
  0.00000000E+00  0.00000000E+00  0.00000000E+00
  0.00000000E+00  0.00000000E+00  0.00000000E+00
  0.00000000E+00  0.00000000E+00  0.00000000E+00
  0.00000000E+00  0.00000000E+00  0.00000000E+00
  0.00000000E+00  0.00000000E+00  0.00000000E+00
  0.00000000E+00  0.00000000E+00  0.00000000E+00
  0.00000000E+00  0.00000000E+00  0.00000000E+00
  0.00000000E+00  0.00000000E+00  0.00000000E+00
  0.00000000E+00  0.00000000E+00  0.00000000E+00
  0.00000000E+00  0.00000000E+00  0.00000000E+00
  0.00000000E+00  0.00000000E+00  0.00000000E+00
  0.00000000E+00  0.00000000E+00  0.00000000E+00
  0.00000000E+00  0.00000000E+00  0.00000000E+00
  0.00000000E+00  0.00000000E+00  0.00000000E+00
  0.00000000E+00  0.00000000E+00  0.00000000E+00
  0.00000000E+00  0.00000000E+00  0.00000000E+00
  0.00000000E+00  0.00000000E+00  0.00000000E+00
  0.00000000E+00  0.00000000E+00  0.00000000E+00
  0.00000000E+00  0.00000000E+00  0.00000000E+00
  0.00000000E+00  0.00000000E+00  0.00000000E+00
  0.00000000E+00  0.00000000E+00  0.00000000E+00
  0.00000000E+00  0.00000000E+00  0.00000000E+00
  0.00000000E+00  0.00000000E+00  0.00000000E+00
  0.00000000E+00  0.00000000E+00  0.00000000E+00
  0.00000000E+00  0.00000000E+00  0.00000000E+00
  0.00000000E+00  0.00000000E+00  0.00000000E+00
  0.00000000E+00  0.00000000E+00  0.00000000E+00
  0.00000000E+00  0.00000000E+00  0.00000000E+00
  0.00000000E+00  0.00000000E+00  0.00000000E+00
  0.00000000E+00  0.00000000E+00  0.00000000E+00
  0.00000000E+00  0.00000000E+00  0.00000000E+00
  0.00000000E+00  0.00000000E+00  0.00000000E+00
  0.00000000E+00  0.00000000E+00  0.00000000E+00
  0.00000000E+00  0.00000000E+00  0.00000000E+00
  0.00000000E+00  0.00000000E+00  0.00000000E+00
  0.00000000E+00  0.00000000E+00  0.00000000E+00
  0.00000000E+00  0.00000000E+00  0.00000000E+00
  0.00000000E+00  0.00000000E+00  0.00000000E+00
  0.00000000E+00  0.00000000E+00  0.00000000E+00
  0.00000000E+00  0.00000000E+00  0.00000000E+00
  0.00000000E+00  0.00000000E+00  0.00000000E+00
  0.00000000E+00  0.00000000E+00  0.00000000E+00
  0.00000000E+00  0.00000000E+00  0.00000000E+00
  0.00000000E+00  0.00000000E+00  0.00000000E+00
  0.00000000E+00  0.00000000E+00  0.00000000E+00
  0.00000000E+00  0.00000000E+00  0.00000000E+00
  0.00000000E+00  0.00000000E+00  0.00000000E+00
  0.00000000E+00  0.00000000E+00  0.00000000E+00
  0.00000000E+00  0.00000000E+00  0.00000000E+00
  0.00000000E+00  0.00000000E+00  0.00000000E+00
  0.00000000E+00  0.00000000E+00  0.00000000E+00
  0.00000000E+00  0.00000000E+00  0.00000000E+00
  0.00000000E+00  0.00000000E+00  0.00000000E+00
  0.00000000E+00  0.00000000E+00  0.00000000E+00
  0.00000000E+00  0.00000000E+00  0.00000000E+00
  0.00000000E+00  0.00000000E+00  0.00000000E+00
  0.00000000E+00  0.00000000E+00  0.00000000E+00
  0.00000000E+00  0.00000000E+00  0.00000000E+00
  0.00000000E+00  0.00000000E+00  0.00000000E+00
  0.00000000E+00  0.00000000E+00  0.00000000E+00
