NaFNPT                                  
   1.00000000000000     
     9.4069619572559304    0.0031333384790655    0.0196151152233961
    -0.0000000000067388    9.4069678773824030    0.0233095823872160
    -0.0000000000027863   -0.0000000000036032    9.4069677853730909
   F    Na
    32    32
Direct
  0.2594750849352077  0.9957453128142429  0.0062113290459095
  0.2525183614720866  0.0047082499719580  0.4857592220571537
  0.2511337888156113  0.4825104144187014  1.0011901128062066
  0.2620221029197146  0.5162095940179871  0.4938344406743064
  0.2253126410463935  0.2602682148579505  0.2543432943353598
  0.2549755776296642  0.2577334985082856  0.7358828568299569
  0.2361851505538179  0.7414739207934938  0.2406240840908992
  0.2557506597725430  0.7472736161256197  0.7499463223056057
  1.0244651950938815  0.2361580636545320 -0.0062527115895903
  0.0044341643936718  0.2423727329862018  0.5078759997665991
  0.0032644974616645  1.0090500800663924  0.2547068874872208
  0.0092414360676628  0.9969763958953274  0.7311057776915939
  1.0017530575952911  0.5110105762953461  0.2505454042403680
  0.9862990501471974  0.4836848037039955  0.7560992540496562
  0.9995141900960204  0.7439182885238265  0.9941440705367008
  1.0054030099771822  0.7393266030317004  0.5057288430276958
  0.5009422522472625  0.2496550397558025 -0.0126165089866919
  0.4949506975732668  0.2581624068130000  0.4831189513126887
  0.4991137843737639  0.9948032716690847  0.2475764931289773
  0.4811946455263272  0.0042253765746740  0.7494654116830493
  0.5001389361927580  0.4946469806110229  0.2311442476940303
  0.5004426308528270  0.4854170733063338  0.7706485782252633
  0.4823183408450633  0.7596604913493262  0.9746956367362509
  0.5011087727820990  0.7535799477918681  0.4902902700462209
  0.7500977139099764  0.9969747717907644  0.9996541534007990
  0.7351305832694000  0.0202537884709852  0.5173163426102110
  0.7489433412804052  0.4888111522134441  0.0017683724082483
  0.7408202962858491  0.4925427723034701  0.5052034495890136
  0.7387757866133589  0.2599518943450922  0.2440900738434499
  0.7419257582856184  0.2442763252325361  0.7597875588600037
  0.7547416974617696  0.7518403782692408  0.2531332315460073
  0.7339131803622915  0.7642970419323926  0.7699226863807882
  0.2567155016191143  0.2384504761007895 -0.0421621108887802
  0.2769285009968216  0.2673264395989233  0.4932840792775063
  0.2607821727984510  1.0102670434946688  0.2438541893353904
  0.2552402100222818 -0.0100201139081411  0.7442743674974027
  0.2431793699913229  0.4880550060691122  0.2509900464546240
  0.2575405084384302  0.5059959330804128  0.7516560190267204
  0.2471268536242325  0.7493168439240264  1.0101646411741740
  0.2486557022370239  0.7613860820228679  0.4987916654021433
  0.0083852826654253 -0.0050964204880422  0.9869259314985064
  0.0112333618792260  1.0075250945796630  0.4880252766013022
  1.0077724669029615  0.4902691924301832  0.0186653863022415
  0.9908256471720719  0.5087381443240304  0.5189171552175835
  0.9929581215317879  0.2481080092465584  0.2600508217834058
  0.0070806178612481  0.2626408050156249  0.7566473328527498
  1.0103963947900512  0.7398438133524986  0.2557720418739789
  0.0099226023327077  0.7519929667553014  0.7559150588032133
  0.5083053374552872 -0.0025194763792559 -0.0120683397239075
  0.4842722802102930  0.9999365092887443  0.5005253761603858
  0.4896542881209047  0.4985244206287757 -0.0035767575072871
  0.4896804445579854  0.4918901729000749  0.4851577649047124
  0.5042253417472224  0.2512395856640751  0.2329308131924879
  0.5129597110867137  0.2369958066772235  0.7528848920007225
  0.4773198387711794  0.7619624084398606  0.2382809752129367
  0.5063275627477382  0.7397430110824192  0.7388107981456892
  0.7435201523523390  0.2497640693571279 -0.0045877279905416
  0.7615334801076126  0.2500637644914244  0.5007282793176177
  0.7588179046632140 -0.0085923964101851  0.2514319264288648
  0.7509183342513513 -0.0043047827048072  0.7537797000230972
  0.7522732292337617  0.5059016508285381  0.2559354884078390
  0.7403915187100110  0.5131657866658782  0.7608076606676833
  0.7589843454809889  0.7467375333463978  0.9995031510113052
  0.7582207703389334  0.7660142684171506  0.5059216030682243
 
 -0.13196475E-02 -0.19731189E-03  0.15043762E-02
 -0.43613331E-03 -0.64847240E-02 -0.40463906E-02
  0.42122649E-02 -0.80911345E-04  0.42974423E-03
  0.10065076E-02  0.14745340E-05  0.33024175E-02
 -0.26113514E-03  0.50065418E-03  0.18187071E-02
 -0.14708448E-02 -0.63899234E-03 -0.64310915E-02
 -0.23994987E-02  0.23408167E-02  0.81389912E-03
  0.18661080E-02 -0.43160684E-02  0.59394642E-02
 -0.52637933E-03  0.26217895E-02 -0.95005095E-02
 -0.26319572E-03 -0.39312019E-02  0.53880577E-04
 -0.20588163E-03 -0.35840789E-02 -0.12165324E-02
 -0.54106266E-02  0.19916181E-02  0.71814063E-03
  0.54615728E-02 -0.89518989E-03 -0.15208950E-02
  0.18167041E-03  0.11762086E-02  0.52873567E-02
 -0.29425670E-02  0.34167801E-02  0.15905447E-02
 -0.56709143E-02  0.37573286E-02  0.67287539E-02
  0.44498430E-02  0.28000838E-02 -0.29996784E-03
  0.26439378E-02 -0.99958776E-03 -0.35892443E-03
 -0.16048753E-02  0.19488454E-03 -0.51341426E-04
  0.26080129E-02 -0.27518471E-02 -0.15929204E-03
  0.15038182E-02 -0.42217639E-02 -0.64723380E-03
 -0.42659355E-02  0.28273127E-02 -0.18301130E-02
 -0.60164560E-02  0.57109793E-02  0.30324407E-02
 -0.51272347E-02  0.21272953E-02 -0.13908947E-02
  0.13809089E-03 -0.31783102E-02  0.29670405E-02
 -0.32163739E-02 -0.39859156E-02 -0.79428329E-03
  0.19906805E-02 -0.18579779E-03 -0.98629330E-03
 -0.12548298E-02 -0.18229997E-02  0.45691927E-02
  0.85072862E-03  0.94778749E-02  0.16974594E-02
 -0.52087643E-03 -0.15387191E-03  0.14286008E-02
  0.13482575E-02 -0.17860754E-02 -0.15125252E-02
  0.23433274E-02  0.68086682E-03  0.45543608E-03
  0.28939687E-02 -0.81751250E-03 -0.17929397E-02
 -0.14089582E-02  0.22793428E-02  0.18498662E-02
  0.38569028E-02 -0.26345657E-02  0.35539838E-02
  0.82536045E-02 -0.46508126E-02 -0.68440879E-03
  0.65172295E-02  0.29032903E-02  0.20493265E-03
  0.17981775E-02 -0.50315230E-04 -0.27304941E-03
  0.13228190E-03  0.60217073E-02  0.30491895E-03
 -0.59231596E-02  0.16577644E-02  0.19966917E-02
 -0.93272168E-02  0.50605931E-02  0.14016743E-02
  0.18828812E-02  0.27917776E-02 -0.29790027E-02
  0.27925546E-02 -0.17914477E-02 -0.12764527E-02
  0.32528431E-02  0.16919126E-02 -0.58755294E-02
  0.79080776E-03 -0.17096424E-02  0.48265421E-02
 -0.36107372E-02 -0.32357340E-02  0.11626657E-02
  0.11831453E-02 -0.10990828E-02 -0.36943384E-03
  0.60754016E-02 -0.44207509E-02  0.22289624E-02
 -0.11186510E-02  0.78973474E-02 -0.56049118E-02
  0.27765857E-03  0.10755917E-01  0.20062306E-02
  0.12573062E-03 -0.43150136E-02 -0.74442338E-04
  0.64808446E-03 -0.17781714E-02 -0.21192467E-02
 -0.50217037E-03 -0.29380457E-02  0.32405275E-03
 -0.16166128E-03 -0.23109525E-02  0.23554794E-02
  0.15555744E-02  0.20570517E-02 -0.34405130E-03
  0.97993496E-03 -0.37672758E-02 -0.52024038E-02
  0.19518652E-02  0.19732672E-02  0.17465225E-02
 -0.21690935E-02  0.82662438E-03  0.30948396E-02
  0.87302002E-02  0.11404299E-02  0.15101918E-02
  0.46817017E-03 -0.84769860E-03 -0.13068396E-02
 -0.26616108E-02 -0.78147460E-02 -0.77320190E-02
 -0.10166195E-01  0.48591029E-03 -0.98264684E-02
  0.28103337E-02 -0.43870176E-02 -0.18342522E-02
 -0.50329406E-02  0.52809926E-03  0.47011090E-02
 
           1
   1.00000000000000     
 -0.53561394E+00 -0.35229228E-02 -0.40067552E-02 -0.53184910E+00
  0.25933480E+00  0.99572438E+00  0.63715949E-02
  0.25247200E+00  0.40189121E-02  0.48533088E+00
  0.25158157E+00  0.48250166E+00  0.12348844E-02
  0.26212910E+00  0.51620972E+00  0.49418528E+00
  0.22528488E+00  0.26032145E+00  0.25453656E+00
  0.25481922E+00  0.25766562E+00  0.73519970E+00
  0.23593007E+00  0.74172284E+00  0.24071052E+00
  0.25594903E+00  0.74681473E+00  0.75057844E+00
  0.24409239E-01  0.23643679E+00  0.99273677E+00
  0.44061856E-02  0.24195484E+00  0.50788282E+00
  0.32426114E-02  0.86690848E-02  0.25457855E+00
  0.86662635E-02  0.99718830E+00  0.73118279E+00
  0.23336460E-02  0.51091522E+00  0.25038275E+00
  0.98631836E+00  0.48380983E+00  0.75666097E+00
  0.99920138E+00  0.74428161E+00  0.99431290E+00
  0.48001677E-02  0.73972622E+00  0.50644440E+00
  0.50141529E+00  0.24995254E+00  0.98734988E+00
  0.49523176E+00  0.25805605E+00  0.48308047E+00
  0.49894318E+00  0.99482405E+00  0.24757134E+00
  0.48147189E+00  0.39327514E-02  0.74944863E+00
  0.50029880E+00  0.49419814E+00  0.23107622E+00
  0.49998914E+00  0.48571778E+00  0.77045423E+00
  0.48167877E+00  0.76026781E+00  0.97501783E+00
  0.50056373E+00  0.75380627E+00  0.49014299E+00
  0.75011239E+00  0.99663690E+00  0.99997037E+00
  0.73478867E+00  0.19830183E-01  0.51723367E+00
  0.74915496E+00  0.48879133E+00  0.16631332E-02
  0.74068690E+00  0.49234902E+00  0.50568993E+00
  0.73886622E+00  0.26095940E+00  0.24426784E+00
  0.74187039E+00  0.24425999E+00  0.75993958E+00
  0.75488502E+00  0.75165046E+00  0.25297262E+00
  0.73416229E+00  0.76436934E+00  0.76997040E+00
  0.25702314E+00  0.23836347E+00  0.95764687E+00
  0.27677872E+00  0.26756879E+00  0.49348044E+00
  0.26119218E+00  0.99868416E-02  0.24423183E+00
  0.25611760E+00  0.98948519E+00  0.74420101E+00
  0.24387218E+00  0.48836341E+00  0.25100962E+00
  0.25773166E+00  0.50599052E+00  0.75162661E+00
  0.24714092E+00  0.74995697E+00  0.10195440E-01
  0.24802605E+00  0.76156252E+00  0.49900480E+00
  0.73937599E-02  0.99544187E+00  0.98707567E+00
  0.11433520E-01  0.78218055E-02  0.48770744E+00
  0.80693273E-02  0.49007866E+00  0.18529547E-01
  0.99117144E+00  0.50891789E+00  0.51829140E+00
  0.99304219E+00  0.24792624E+00  0.26056418E+00
  0.66967812E-02  0.26229696E+00  0.75677258E+00
  0.10522168E-01  0.73972693E+00  0.25573280E+00
  0.10568443E-01  0.75152281E+00  0.75615183E+00
  0.50818642E+00  0.99832008E+00  0.98733400E+00
  0.48430180E+00  0.10798984E-02  0.50073575E+00
  0.48966765E+00  0.49806571E+00  0.99641644E+00
  0.48974934E+00  0.49170112E+00  0.48493280E+00
  0.50417196E+00  0.25092728E+00  0.23296615E+00
  0.51294253E+00  0.23675015E+00  0.75313593E+00
  0.47748520E+00  0.76218103E+00  0.23824351E+00
  0.50643173E+00  0.73934250E+00  0.73825854E+00
  0.74372764E+00  0.24997377E+00  0.99559698E+00
  0.76130290E+00  0.25015171E+00  0.50105754E+00
  0.75974596E+00  0.99152853E+00  0.25159023E+00
  0.75096810E+00  0.99560509E+00  0.75364090E+00
  0.75199029E+00  0.50507100E+00  0.25511619E+00
  0.73931081E+00  0.51321780E+00  0.75976519E+00
  0.75928310E+00  0.74627108E+00  0.99930870E+00
  0.75768575E+00  0.76607059E+00  0.50642233E+00
  0.00000000E+00  0.00000000E+00  0.00000000E+00
  0.00000000E+00  0.00000000E+00  0.00000000E+00
  0.00000000E+00  0.00000000E+00  0.00000000E+00
  0.00000000E+00  0.00000000E+00  0.00000000E+00
  0.00000000E+00  0.00000000E+00  0.00000000E+00
  0.00000000E+00  0.00000000E+00  0.00000000E+00
  0.00000000E+00  0.00000000E+00  0.00000000E+00
  0.00000000E+00  0.00000000E+00  0.00000000E+00
  0.00000000E+00  0.00000000E+00  0.00000000E+00
  0.00000000E+00  0.00000000E+00  0.00000000E+00
  0.00000000E+00  0.00000000E+00  0.00000000E+00
  0.00000000E+00  0.00000000E+00  0.00000000E+00
  0.00000000E+00  0.00000000E+00  0.00000000E+00
  0.00000000E+00  0.00000000E+00  0.00000000E+00
  0.00000000E+00  0.00000000E+00  0.00000000E+00
  0.00000000E+00  0.00000000E+00  0.00000000E+00
  0.00000000E+00  0.00000000E+00  0.00000000E+00
  0.00000000E+00  0.00000000E+00  0.00000000E+00
  0.00000000E+00  0.00000000E+00  0.00000000E+00
  0.00000000E+00  0.00000000E+00  0.00000000E+00
  0.00000000E+00  0.00000000E+00  0.00000000E+00
  0.00000000E+00  0.00000000E+00  0.00000000E+00
  0.00000000E+00  0.00000000E+00  0.00000000E+00
  0.00000000E+00  0.00000000E+00  0.00000000E+00
  0.00000000E+00  0.00000000E+00  0.00000000E+00
  0.00000000E+00  0.00000000E+00  0.00000000E+00
  0.00000000E+00  0.00000000E+00  0.00000000E+00
  0.00000000E+00  0.00000000E+00  0.00000000E+00
  0.00000000E+00  0.00000000E+00  0.00000000E+00
  0.00000000E+00  0.00000000E+00  0.00000000E+00
  0.00000000E+00  0.00000000E+00  0.00000000E+00
  0.00000000E+00  0.00000000E+00  0.00000000E+00
  0.00000000E+00  0.00000000E+00  0.00000000E+00
  0.00000000E+00  0.00000000E+00  0.00000000E+00
  0.00000000E+00  0.00000000E+00  0.00000000E+00
  0.00000000E+00  0.00000000E+00  0.00000000E+00
  0.00000000E+00  0.00000000E+00  0.00000000E+00
  0.00000000E+00  0.00000000E+00  0.00000000E+00
  0.00000000E+00  0.00000000E+00  0.00000000E+00
  0.00000000E+00  0.00000000E+00  0.00000000E+00
  0.00000000E+00  0.00000000E+00  0.00000000E+00
  0.00000000E+00  0.00000000E+00  0.00000000E+00
  0.00000000E+00  0.00000000E+00  0.00000000E+00
  0.00000000E+00  0.00000000E+00  0.00000000E+00
  0.00000000E+00  0.00000000E+00  0.00000000E+00
  0.00000000E+00  0.00000000E+00  0.00000000E+00
  0.00000000E+00  0.00000000E+00  0.00000000E+00
  0.00000000E+00  0.00000000E+00  0.00000000E+00
  0.00000000E+00  0.00000000E+00  0.00000000E+00
  0.00000000E+00  0.00000000E+00  0.00000000E+00
  0.00000000E+00  0.00000000E+00  0.00000000E+00
  0.00000000E+00  0.00000000E+00  0.00000000E+00
  0.00000000E+00  0.00000000E+00  0.00000000E+00
  0.00000000E+00  0.00000000E+00  0.00000000E+00
  0.00000000E+00  0.00000000E+00  0.00000000E+00
  0.00000000E+00  0.00000000E+00  0.00000000E+00
  0.00000000E+00  0.00000000E+00  0.00000000E+00
  0.00000000E+00  0.00000000E+00  0.00000000E+00
  0.00000000E+00  0.00000000E+00  0.00000000E+00
  0.00000000E+00  0.00000000E+00  0.00000000E+00
  0.00000000E+00  0.00000000E+00  0.00000000E+00
  0.00000000E+00  0.00000000E+00  0.00000000E+00
  0.00000000E+00  0.00000000E+00  0.00000000E+00
  0.00000000E+00  0.00000000E+00  0.00000000E+00
  0.00000000E+00  0.00000000E+00  0.00000000E+00
  0.00000000E+00  0.00000000E+00  0.00000000E+00
  0.00000000E+00  0.00000000E+00  0.00000000E+00
  0.00000000E+00  0.00000000E+00  0.00000000E+00
  0.00000000E+00  0.00000000E+00  0.00000000E+00
  0.00000000E+00  0.00000000E+00  0.00000000E+00
  0.00000000E+00  0.00000000E+00  0.00000000E+00
  0.00000000E+00  0.00000000E+00  0.00000000E+00
  0.00000000E+00  0.00000000E+00  0.00000000E+00
  0.00000000E+00  0.00000000E+00  0.00000000E+00
  0.00000000E+00  0.00000000E+00  0.00000000E+00
  0.00000000E+00  0.00000000E+00  0.00000000E+00
  0.00000000E+00  0.00000000E+00  0.00000000E+00
  0.00000000E+00  0.00000000E+00  0.00000000E+00
  0.00000000E+00  0.00000000E+00  0.00000000E+00
  0.00000000E+00  0.00000000E+00  0.00000000E+00
  0.00000000E+00  0.00000000E+00  0.00000000E+00
  0.00000000E+00  0.00000000E+00  0.00000000E+00
  0.00000000E+00  0.00000000E+00  0.00000000E+00
  0.00000000E+00  0.00000000E+00  0.00000000E+00
  0.00000000E+00  0.00000000E+00  0.00000000E+00
  0.00000000E+00  0.00000000E+00  0.00000000E+00
  0.00000000E+00  0.00000000E+00  0.00000000E+00
  0.00000000E+00  0.00000000E+00  0.00000000E+00
  0.00000000E+00  0.00000000E+00  0.00000000E+00
  0.00000000E+00  0.00000000E+00  0.00000000E+00
  0.00000000E+00  0.00000000E+00  0.00000000E+00
  0.00000000E+00  0.00000000E+00  0.00000000E+00
  0.00000000E+00  0.00000000E+00  0.00000000E+00
  0.00000000E+00  0.00000000E+00  0.00000000E+00
  0.00000000E+00  0.00000000E+00  0.00000000E+00
  0.00000000E+00  0.00000000E+00  0.00000000E+00
  0.00000000E+00  0.00000000E+00  0.00000000E+00
  0.00000000E+00  0.00000000E+00  0.00000000E+00
  0.00000000E+00  0.00000000E+00  0.00000000E+00
  0.00000000E+00  0.00000000E+00  0.00000000E+00
  0.00000000E+00  0.00000000E+00  0.00000000E+00
  0.00000000E+00  0.00000000E+00  0.00000000E+00
  0.00000000E+00  0.00000000E+00  0.00000000E+00
  0.00000000E+00  0.00000000E+00  0.00000000E+00
  0.00000000E+00  0.00000000E+00  0.00000000E+00
  0.00000000E+00  0.00000000E+00  0.00000000E+00
  0.00000000E+00  0.00000000E+00  0.00000000E+00
  0.00000000E+00  0.00000000E+00  0.00000000E+00
  0.00000000E+00  0.00000000E+00  0.00000000E+00
  0.00000000E+00  0.00000000E+00  0.00000000E+00
  0.00000000E+00  0.00000000E+00  0.00000000E+00
  0.00000000E+00  0.00000000E+00  0.00000000E+00
  0.00000000E+00  0.00000000E+00  0.00000000E+00
  0.00000000E+00  0.00000000E+00  0.00000000E+00
  0.00000000E+00  0.00000000E+00  0.00000000E+00
  0.00000000E+00  0.00000000E+00  0.00000000E+00
  0.00000000E+00  0.00000000E+00  0.00000000E+00
  0.00000000E+00  0.00000000E+00  0.00000000E+00
  0.00000000E+00  0.00000000E+00  0.00000000E+00
  0.00000000E+00  0.00000000E+00  0.00000000E+00
  0.00000000E+00  0.00000000E+00  0.00000000E+00
  0.00000000E+00  0.00000000E+00  0.00000000E+00
  0.00000000E+00  0.00000000E+00  0.00000000E+00
  0.00000000E+00  0.00000000E+00  0.00000000E+00
  0.00000000E+00  0.00000000E+00  0.00000000E+00
  0.00000000E+00  0.00000000E+00  0.00000000E+00
  0.00000000E+00  0.00000000E+00  0.00000000E+00
  0.00000000E+00  0.00000000E+00  0.00000000E+00
