Zn2 F4                                  
   1.00000000000000     
     9.5679995346000002    0.0000000000000000    0.0000000000000000
     0.0000000000000000    9.5679995346000002    0.0000000000000000
     0.0000000000000000    0.0000000000000000    9.6039145660000003
   Zn   F 
    24    48
Direct
  0.2507357663988904  0.2496080472100215  0.1736444784661322
  0.2392593046739902  0.2544805598740167  0.4972999096400915
  0.2554018269376486  0.2486260520013613  0.8462316108823070
  0.2548337281701551  0.7445163205601449  0.1616820928211408
  0.2543708001463907  0.7370779191641376  0.5037665089249853
  0.2539093027121469  0.7512083352469062  0.8351068159693560
  0.7609818698837441  0.2650330881224059  0.1703490201917346
  0.7517901597104291  0.2432391287566974  0.4948598006741288
  0.7416171527171694  0.2443142874208533  0.8338590197728497
  0.7504019039391177  0.7531754959139694  0.1589625894585927
  0.7537524844580140  0.7484257717315037  0.4972193005753930
  0.7430644292996010  0.7497512999951867  0.8410971188971677
 -0.0035640213974415  1.0043987501671126  0.0122143058738249
  0.0274252805616465 -0.0046497136663506  0.3311104239199701
  0.9825446399723710 -0.0025279298480064  0.6684475497571141
 -0.0045044193102004  0.5145305975710451 -0.0097826616926096
  0.9990112022149092  0.5101385048959322  0.3399378791526093
  0.9953306979813037  0.4960208353726288  0.6706996837660903
  0.4984433842799816  0.9952560589282969 -0.0100121813881849
  0.4942624969675317  1.0115211652967724  0.3364286417264981
  0.4975812694440022 -0.0046869237657778  0.6516023896509658
  0.4902574888028260  0.4944571503683511 -0.0120091938337594
  0.5086783439973894  0.4937343830021107  0.3327366466373920
  0.5030209796445345  0.5104212097947615  0.6585520675792669
  0.3404935998272601  0.3605325756180813  0.9995163490232165
  0.3608101791097596  0.3453979622108066  0.3408837802173613
  0.3397944013787669  0.3624271118781671  0.6872018969783936
  0.3662073161964513  0.8307338350047915  0.9924703531690207
  0.3460824783899891  0.8277785643028565  0.3353506082260913
  0.3559473133102936  0.8309808685578279  0.6682117526037673
  0.8557188966080255  0.3527142595626679  0.0028974558176964
  0.8524636742949093  0.3437732958608501  0.3375538542863648
  0.8560152754202993  0.3301981704525845  0.6649758040712197
  0.8473492182141034  0.8546899575963716 -0.0037320708019729
  0.8537069235194602  0.8542490685375408  0.3172447084206235
  0.8531585493725321  0.8378492244143492  0.6680587090619095
  0.4040358828979282  0.1044224951756729  0.1580693288857212
  0.3997714770353550  0.0901208036228305  0.5014218861143398
  0.3994049372593743  0.0828189500605950  0.8310784151520916
  0.3926740768233860  0.5920738776738115  0.1667806784248823
  0.4022938931663689  0.5771658816831966  0.4935139999256885
  0.3950923443052237  0.5962484986554827  0.8376340428459476
  0.9117784260781596  0.0882023881983990  0.1693260024323531
  0.9083865119281168  0.0990970482074556  0.4927672569580141
  0.8830210329825317  0.0886757310619536  0.8357137215737021
  0.8994988048398788  0.5873385877094124  0.1614619199354978
  0.8875709789684585  0.5993726721011897  0.5103239296667985
  0.8858619654338387  0.6030190904001248  0.8237910465749537
  0.1693687573537599  0.1545573259459735  0.0142673061547656
  0.1428095600057929  0.1671195386678719  0.3500217436872718
  0.1618771113083555  0.1506183492860859  0.6673263348170140
  0.1424201119576518  0.6544683119706107 -0.0156474337335589
  0.1386104933972307  0.6580262836686568  0.3410371836107959
  0.1326597092550147  0.6543373186630884  0.6869687620815335
  0.6611649523273101  0.1561195809952505  0.0116741917350601
  0.6517879532358890  0.1505085995209771  0.3335116031126167
  0.6416679941977088  0.1599831031274519  0.6618950910806102
  0.6427481996061264  0.6520895666512547  1.0008829545044269
  0.6510004244764259  0.6560744870281333  0.3459728126129106
  0.6371116120490206  0.6668542004185247  0.6665336074595934
  0.0958404688918855  0.3985137023417143  0.1827977948448914
  0.1041040807933560  0.4097968447983492  0.4950846035756765
  0.0832949841595366  0.3882847228202253  0.8342702409668347
  0.1205306324209260  0.9236413570732608  0.1619534034544574
  0.0962427304410054  0.8901349151244885  0.5132964954991209
  0.0917582949074002  0.9070841982346852  0.8455936389151567
  0.5980746719304284  0.4027492761079262  0.1509115523613418
  0.6162467203640760  0.4001710900632410  0.5011858584995837
  0.6143922710949612  0.4099398339003226  0.8315633827686291
  0.5992419544725641  0.9073901401509943  0.1650607033078490
  0.6174615604888922  0.9092528715326231  0.4870658880332785
  0.5972440441710292  0.9046249267666898  0.8293154464298924
 
  0.14337268E-02 -0.50777998E-03  0.11329488E-02
  0.11747526E-02  0.57747820E-03 -0.16878636E-02
  0.18495653E-02  0.24518480E-03  0.26857330E-02
  0.23575041E-02 -0.49788407E-03  0.58571233E-03
 -0.14250709E-02 -0.27153393E-03  0.16417530E-02
  0.17527847E-02  0.49960610E-03 -0.11433254E-02
 -0.30072377E-02 -0.80881458E-03  0.10637389E-03
  0.41443247E-03  0.30757861E-03  0.12469371E-02
 -0.15170130E-02  0.20888076E-02 -0.60039779E-03
  0.70396290E-03 -0.13640526E-03  0.16825204E-03
 -0.26179941E-02 -0.37625748E-03 -0.13255273E-02
  0.12277053E-02  0.25869533E-02 -0.16059913E-02
 -0.11405389E-02 -0.22581125E-02  0.16072661E-02
 -0.17938425E-02  0.56823344E-03 -0.58260132E-03
  0.24437175E-03  0.14250083E-02 -0.12558252E-03
  0.20276053E-02  0.28901034E-02  0.45373681E-02
 -0.24661956E-02 -0.11263950E-02 -0.16777438E-02
  0.98000614E-03  0.82028873E-03  0.97099800E-03
  0.28155251E-02  0.15704386E-02  0.20062021E-02
  0.16009305E-02  0.34932606E-03 -0.90689842E-03
 -0.83507923E-03 -0.17651855E-02 -0.12356134E-02
 -0.10968581E-02 -0.42301826E-02 -0.14109320E-02
  0.33685559E-03 -0.54443253E-03  0.33071592E-02
 -0.44018177E-02 -0.10209015E-02 -0.14725092E-03
 -0.53968339E-02  0.26756146E-03  0.24866509E-02
 -0.14954019E-02 -0.44264399E-02  0.23040314E-02
 -0.21176295E-02  0.30372341E-02  0.86793998E-03
 -0.65145121E-02 -0.56309665E-02  0.16294790E-02
 -0.19202814E-02  0.47608005E-02  0.36686957E-03
  0.80675618E-02 -0.54216079E-02  0.93087548E-03
 -0.39566708E-03  0.36055670E-02 -0.14741106E-02
 -0.10708404E-02  0.14865724E-02  0.59581878E-02
 -0.38411748E-02 -0.19319693E-02  0.26302305E-02
  0.32765935E-03 -0.45483076E-03 -0.73488133E-03
 -0.16730984E-03 -0.17049461E-02 -0.29192859E-02
 -0.15990851E-02 -0.11468572E-02 -0.93273055E-03
  0.10301564E-02 -0.59576556E-02 -0.19101235E-02
 -0.31196763E-02 -0.92101458E-03  0.64994793E-02
  0.66789592E-02 -0.78370738E-04 -0.10587543E-01
  0.71879746E-02 -0.62314899E-05 -0.91022975E-03
  0.19174498E-02  0.10617383E-02  0.33495937E-02
  0.21273123E-04 -0.84692136E-03  0.12762171E-02
  0.62174302E-02  0.14952944E-02 -0.54427170E-02
 -0.29243914E-02 -0.29681539E-03 -0.10865447E-02
  0.16799594E-02  0.85158536E-02  0.54676563E-02
  0.31690202E-02  0.26974769E-02 -0.12744830E-03
 -0.96402317E-04  0.43913391E-03  0.42765931E-02
  0.15956288E-02 -0.49474770E-02 -0.23384826E-03
  0.25185995E-02  0.43862857E-02 -0.24820707E-02
  0.12807313E-02 -0.14725637E-02  0.46276701E-02
 -0.15099508E-02 -0.31701437E-02 -0.41036852E-02
 -0.11809441E-02  0.27348331E-02  0.16038826E-02
  0.32800783E-02 -0.10539342E-02 -0.85511329E-02
 -0.81884741E-04  0.74330648E-02 -0.50373095E-02
 -0.22485433E-02  0.20247891E-02 -0.25590284E-02
 -0.25501735E-02  0.22997451E-02  0.18532635E-02
  0.30239325E-02  0.43324045E-02  0.62717432E-04
 -0.24066636E-02 -0.14035919E-02 -0.24104296E-02
 -0.15959316E-03 -0.26006738E-02  0.70927895E-03
  0.16226019E-02  0.42870729E-02 -0.10525342E-02
 -0.41824138E-03 -0.23852593E-02 -0.15568417E-02
 -0.51163839E-02  0.55499154E-03  0.98250069E-04
 -0.22042535E-02  0.28491039E-02  0.26621023E-02
  0.20966908E-02  0.68397424E-02 -0.27672462E-02
  0.26129748E-02 -0.10004358E-02 -0.35161739E-02
  0.94843848E-03 -0.42432803E-02 -0.30314533E-02
  0.28513946E-02 -0.68247286E-02 -0.19666047E-02
  0.55632378E-02 -0.57022238E-02 -0.77491835E-03
 -0.43769903E-02  0.19172390E-02 -0.29208037E-02
 -0.19001800E-02 -0.38766791E-02 -0.70561461E-02
 -0.15422785E-02  0.38207240E-02  0.38166445E-02
 -0.25799818E-02 -0.46671785E-02 -0.33080195E-02
 
           1
   1.00000000000000     
  0.19236561E+00  0.15410773E-02  0.28447702E-02  0.19017269E+00
  0.25088561E+00  0.24955498E+00  0.17376245E+00
  0.23938208E+00  0.25454092E+00  0.49712416E+00
  0.25559513E+00  0.24865168E+00  0.84651126E+00
  0.25508012E+00  0.74446428E+00  0.16174308E+00
  0.25422186E+00  0.73704954E+00  0.50393746E+00
  0.25409250E+00  0.75126055E+00  0.83498777E+00
  0.76066757E+00  0.26494855E+00  0.17036010E+00
  0.75183347E+00  0.24327128E+00  0.49498964E+00
  0.74145860E+00  0.24453260E+00  0.83379650E+00
  0.75047548E+00  0.75316124E+00  0.15898011E+00
  0.75347886E+00  0.74838645E+00  0.49708128E+00
  0.74319274E+00  0.75002168E+00  0.84092990E+00
  0.99631678E+00  0.41627434E-02  0.12381661E-01
  0.27237797E-01  0.99540968E+00  0.33104976E+00
  0.98257018E+00  0.99762100E+00  0.66843447E+00
  0.99570750E+00  0.51483266E+00  0.99068979E+00
  0.99875345E+00  0.51002078E+00  0.33976319E+00
  0.99543312E+00  0.49610657E+00  0.67080079E+00
  0.49873765E+00  0.99542019E+00  0.99019671E+00
  0.49442982E+00  0.11557675E-01  0.33633421E+00
  0.49749399E+00  0.99512859E+00  0.65147373E+00
  0.49014285E+00  0.49401503E+00  0.98784389E+00
  0.50871355E+00  0.49367748E+00  0.33308100E+00
  0.50256092E+00  0.51031451E+00  0.65853674E+00
  0.33992955E+00  0.36056054E+00  0.99977527E+00
  0.36065389E+00  0.34493533E+00  0.34112369E+00
  0.33957308E+00  0.36274455E+00  0.68729227E+00
  0.36552645E+00  0.83014531E+00  0.99264002E+00
  0.34588178E+00  0.82827614E+00  0.33538881E+00
  0.35679049E+00  0.83041423E+00  0.66830868E+00
  0.85567754E+00  0.35309110E+00  0.27439652E-02
  0.85235176E+00  0.34392867E+00  0.33817425E+00
  0.85561381E+00  0.32999625E+00  0.66524967E+00
  0.84738346E+00  0.85464242E+00  0.99619141E+00
  0.85368944E+00  0.85407088E+00  0.31694074E+00
  0.85299142E+00  0.83772936E+00  0.66796159E+00
  0.40414355E+00  0.10379983E+00  0.15787044E+00
  0.39944542E+00  0.90024544E-01  0.50209864E+00
  0.40010299E+00  0.82810759E-01  0.82997600E+00
  0.39342533E+00  0.59207323E+00  0.16668590E+00
  0.40249430E+00  0.57727685E+00  0.49386277E+00
  0.39509457E+00  0.59615998E+00  0.83776693E+00
  0.91242824E+00  0.88358669E-01  0.16875928E+00
  0.90808087E+00  0.99066027E-01  0.49265412E+00
  0.88319661E+00  0.89565766E-01  0.83628304E+00
  0.89983002E+00  0.58762051E+00  0.16144865E+00
  0.88756090E+00  0.59941857E+00  0.51076923E+00
  0.88602873E+00  0.60250200E+00  0.82376670E+00
  0.16963199E+00  0.15501576E+00  0.14008863E-01
  0.14294342E+00  0.16696563E+00  0.35050360E+00
  0.16171930E+00  0.15028702E+00  0.66689904E+00
  0.14229669E+00  0.65475414E+00  0.98451957E+00
  0.13895331E+00  0.65791613E+00  0.34014680E+00
  0.13265115E+00  0.65511419E+00  0.68644426E+00
  0.66092995E+00  0.15633120E+00  0.11407735E-01
  0.65152142E+00  0.15074896E+00  0.33370457E+00
  0.64198404E+00  0.16043590E+00  0.66190162E+00
  0.64249667E+00  0.65194287E+00  0.63197043E-03
  0.65098374E+00  0.65580268E+00  0.34604667E+00
  0.63728120E+00  0.66730226E+00  0.66642401E+00
  0.95796756E-01  0.39826441E+00  0.18263569E+00
  0.10356934E+00  0.40985485E+00  0.49509483E+00
  0.83064606E-01  0.38858250E+00  0.83454743E+00
  0.12074977E+00  0.92435621E+00  0.16166527E+00
  0.96515826E-01  0.89003035E+00  0.51293038E+00
  0.91857421E-01  0.90664071E+00  0.84527799E+00
  0.59837269E+00  0.40203599E+00  0.15070678E+00
  0.61682816E+00  0.39957512E+00  0.50110517E+00
  0.61393481E+00  0.41014021E+00  0.83125926E+00
  0.59904336E+00  0.90698497E+00  0.16432599E+00
  0.61730037E+00  0.90965219E+00  0.48746329E+00
  0.59697440E+00  0.90413714E+00  0.82897100E+00
  0.00000000E+00  0.00000000E+00  0.00000000E+00
  0.00000000E+00  0.00000000E+00  0.00000000E+00
  0.00000000E+00  0.00000000E+00  0.00000000E+00
  0.00000000E+00  0.00000000E+00  0.00000000E+00
  0.00000000E+00  0.00000000E+00  0.00000000E+00
  0.00000000E+00  0.00000000E+00  0.00000000E+00
  0.00000000E+00  0.00000000E+00  0.00000000E+00
  0.00000000E+00  0.00000000E+00  0.00000000E+00
  0.00000000E+00  0.00000000E+00  0.00000000E+00
  0.00000000E+00  0.00000000E+00  0.00000000E+00
  0.00000000E+00  0.00000000E+00  0.00000000E+00
  0.00000000E+00  0.00000000E+00  0.00000000E+00
  0.00000000E+00  0.00000000E+00  0.00000000E+00
  0.00000000E+00  0.00000000E+00  0.00000000E+00
  0.00000000E+00  0.00000000E+00  0.00000000E+00
  0.00000000E+00  0.00000000E+00  0.00000000E+00
  0.00000000E+00  0.00000000E+00  0.00000000E+00
  0.00000000E+00  0.00000000E+00  0.00000000E+00
  0.00000000E+00  0.00000000E+00  0.00000000E+00
  0.00000000E+00  0.00000000E+00  0.00000000E+00
  0.00000000E+00  0.00000000E+00  0.00000000E+00
  0.00000000E+00  0.00000000E+00  0.00000000E+00
  0.00000000E+00  0.00000000E+00  0.00000000E+00
  0.00000000E+00  0.00000000E+00  0.00000000E+00
  0.00000000E+00  0.00000000E+00  0.00000000E+00
  0.00000000E+00  0.00000000E+00  0.00000000E+00
  0.00000000E+00  0.00000000E+00  0.00000000E+00
  0.00000000E+00  0.00000000E+00  0.00000000E+00
  0.00000000E+00  0.00000000E+00  0.00000000E+00
  0.00000000E+00  0.00000000E+00  0.00000000E+00
  0.00000000E+00  0.00000000E+00  0.00000000E+00
  0.00000000E+00  0.00000000E+00  0.00000000E+00
  0.00000000E+00  0.00000000E+00  0.00000000E+00
  0.00000000E+00  0.00000000E+00  0.00000000E+00
  0.00000000E+00  0.00000000E+00  0.00000000E+00
  0.00000000E+00  0.00000000E+00  0.00000000E+00
  0.00000000E+00  0.00000000E+00  0.00000000E+00
  0.00000000E+00  0.00000000E+00  0.00000000E+00
  0.00000000E+00  0.00000000E+00  0.00000000E+00
  0.00000000E+00  0.00000000E+00  0.00000000E+00
  0.00000000E+00  0.00000000E+00  0.00000000E+00
  0.00000000E+00  0.00000000E+00  0.00000000E+00
  0.00000000E+00  0.00000000E+00  0.00000000E+00
  0.00000000E+00  0.00000000E+00  0.00000000E+00
  0.00000000E+00  0.00000000E+00  0.00000000E+00
  0.00000000E+00  0.00000000E+00  0.00000000E+00
  0.00000000E+00  0.00000000E+00  0.00000000E+00
  0.00000000E+00  0.00000000E+00  0.00000000E+00
  0.00000000E+00  0.00000000E+00  0.00000000E+00
  0.00000000E+00  0.00000000E+00  0.00000000E+00
  0.00000000E+00  0.00000000E+00  0.00000000E+00
  0.00000000E+00  0.00000000E+00  0.00000000E+00
  0.00000000E+00  0.00000000E+00  0.00000000E+00
  0.00000000E+00  0.00000000E+00  0.00000000E+00
  0.00000000E+00  0.00000000E+00  0.00000000E+00
  0.00000000E+00  0.00000000E+00  0.00000000E+00
  0.00000000E+00  0.00000000E+00  0.00000000E+00
  0.00000000E+00  0.00000000E+00  0.00000000E+00
  0.00000000E+00  0.00000000E+00  0.00000000E+00
  0.00000000E+00  0.00000000E+00  0.00000000E+00
  0.00000000E+00  0.00000000E+00  0.00000000E+00
  0.00000000E+00  0.00000000E+00  0.00000000E+00
  0.00000000E+00  0.00000000E+00  0.00000000E+00
  0.00000000E+00  0.00000000E+00  0.00000000E+00
  0.00000000E+00  0.00000000E+00  0.00000000E+00
  0.00000000E+00  0.00000000E+00  0.00000000E+00
  0.00000000E+00  0.00000000E+00  0.00000000E+00
  0.00000000E+00  0.00000000E+00  0.00000000E+00
  0.00000000E+00  0.00000000E+00  0.00000000E+00
  0.00000000E+00  0.00000000E+00  0.00000000E+00
  0.00000000E+00  0.00000000E+00  0.00000000E+00
  0.00000000E+00  0.00000000E+00  0.00000000E+00
  0.00000000E+00  0.00000000E+00  0.00000000E+00
  0.00000000E+00  0.00000000E+00  0.00000000E+00
  0.00000000E+00  0.00000000E+00  0.00000000E+00
  0.00000000E+00  0.00000000E+00  0.00000000E+00
  0.00000000E+00  0.00000000E+00  0.00000000E+00
  0.00000000E+00  0.00000000E+00  0.00000000E+00
  0.00000000E+00  0.00000000E+00  0.00000000E+00
  0.00000000E+00  0.00000000E+00  0.00000000E+00
  0.00000000E+00  0.00000000E+00  0.00000000E+00
  0.00000000E+00  0.00000000E+00  0.00000000E+00
  0.00000000E+00  0.00000000E+00  0.00000000E+00
  0.00000000E+00  0.00000000E+00  0.00000000E+00
  0.00000000E+00  0.00000000E+00  0.00000000E+00
  0.00000000E+00  0.00000000E+00  0.00000000E+00
  0.00000000E+00  0.00000000E+00  0.00000000E+00
  0.00000000E+00  0.00000000E+00  0.00000000E+00
  0.00000000E+00  0.00000000E+00  0.00000000E+00
  0.00000000E+00  0.00000000E+00  0.00000000E+00
  0.00000000E+00  0.00000000E+00  0.00000000E+00
  0.00000000E+00  0.00000000E+00  0.00000000E+00
  0.00000000E+00  0.00000000E+00  0.00000000E+00
  0.00000000E+00  0.00000000E+00  0.00000000E+00
  0.00000000E+00  0.00000000E+00  0.00000000E+00
  0.00000000E+00  0.00000000E+00  0.00000000E+00
  0.00000000E+00  0.00000000E+00  0.00000000E+00
  0.00000000E+00  0.00000000E+00  0.00000000E+00
  0.00000000E+00  0.00000000E+00  0.00000000E+00
  0.00000000E+00  0.00000000E+00  0.00000000E+00
  0.00000000E+00  0.00000000E+00  0.00000000E+00
  0.00000000E+00  0.00000000E+00  0.00000000E+00
  0.00000000E+00  0.00000000E+00  0.00000000E+00
  0.00000000E+00  0.00000000E+00  0.00000000E+00
  0.00000000E+00  0.00000000E+00  0.00000000E+00
  0.00000000E+00  0.00000000E+00  0.00000000E+00
  0.00000000E+00  0.00000000E+00  0.00000000E+00
  0.00000000E+00  0.00000000E+00  0.00000000E+00
  0.00000000E+00  0.00000000E+00  0.00000000E+00
  0.00000000E+00  0.00000000E+00  0.00000000E+00
  0.00000000E+00  0.00000000E+00  0.00000000E+00
  0.00000000E+00  0.00000000E+00  0.00000000E+00
  0.00000000E+00  0.00000000E+00  0.00000000E+00
  0.00000000E+00  0.00000000E+00  0.00000000E+00
  0.00000000E+00  0.00000000E+00  0.00000000E+00
  0.00000000E+00  0.00000000E+00  0.00000000E+00
  0.00000000E+00  0.00000000E+00  0.00000000E+00
  0.00000000E+00  0.00000000E+00  0.00000000E+00
  0.00000000E+00  0.00000000E+00  0.00000000E+00
  0.00000000E+00  0.00000000E+00  0.00000000E+00
  0.00000000E+00  0.00000000E+00  0.00000000E+00
  0.00000000E+00  0.00000000E+00  0.00000000E+00
  0.00000000E+00  0.00000000E+00  0.00000000E+00
  0.00000000E+00  0.00000000E+00  0.00000000E+00
  0.00000000E+00  0.00000000E+00  0.00000000E+00
  0.00000000E+00  0.00000000E+00  0.00000000E+00
  0.00000000E+00  0.00000000E+00  0.00000000E+00
  0.00000000E+00  0.00000000E+00  0.00000000E+00
  0.00000000E+00  0.00000000E+00  0.00000000E+00
  0.00000000E+00  0.00000000E+00  0.00000000E+00
  0.00000000E+00  0.00000000E+00  0.00000000E+00
  0.00000000E+00  0.00000000E+00  0.00000000E+00
  0.00000000E+00  0.00000000E+00  0.00000000E+00
  0.00000000E+00  0.00000000E+00  0.00000000E+00
  0.00000000E+00  0.00000000E+00  0.00000000E+00
  0.00000000E+00  0.00000000E+00  0.00000000E+00
  0.00000000E+00  0.00000000E+00  0.00000000E+00
  0.00000000E+00  0.00000000E+00  0.00000000E+00
  0.00000000E+00  0.00000000E+00  0.00000000E+00
  0.00000000E+00  0.00000000E+00  0.00000000E+00
  0.00000000E+00  0.00000000E+00  0.00000000E+00
  0.00000000E+00  0.00000000E+00  0.00000000E+00
  0.00000000E+00  0.00000000E+00  0.00000000E+00
  0.00000000E+00  0.00000000E+00  0.00000000E+00
