NaFNPT                                  
   1.00000000000000     
     9.4069619572559304    0.0031333384790655    0.0196151152233961
    -0.0000000000067388    9.4069678773824030    0.0233095823872160
    -0.0000000000027863   -0.0000000000036032    9.4069677853730909
   F    Na
    32    32
Direct
  0.2324184206708350  1.0107319870473106  0.0040902671263307
  0.2575869409259032 -0.0022918242017237  0.4911840343788507
  0.2507956930012670  0.4983850502899294  1.0099454269313515
  0.2441179841639583  0.5156222713262175  0.5014130872862386
  0.2474286920332840  0.2427580805752884  0.2505987879707007
  0.2636547706492532  0.2328712175118984  0.7180912882007607
  0.2341896562193949  0.7680691431301390  0.2414520406083429
  0.2551536524275366  0.7516885476617136  0.7611343038979188
  0.0000844420949904  0.2522357897021746  0.0062185157645645
  0.0055556585618024  0.2435958883872882  0.4922821819395661
 -0.0103242832919428 -0.0003083210653660  0.2607487094802378
  1.0037120972647811  0.9964082960185136  0.7487442122924123
 -0.0013421400101937  0.5015262517232871  0.2587323549094491
  0.9731178434717803  0.5167813433331870  0.7422531117598907
  0.9974709462570670  0.7266610183748911  1.0120053162389775
 -0.0128813314906328  0.7384621351483391  0.5095253946798913
  0.5197061445026046  0.2576285497574001 -0.0002299336520817
  0.5183299477757993  0.2466118734185551  0.4917746594702583
  0.5128467156444162  0.9887764576636144  0.2431737839261471
  0.4990662787922364  0.9986799461642449  0.7403575000786612
  0.4906625634896929  0.5150292707924362  0.2575839906154056
  0.4916967058157089  0.5036949612516703  0.7534420843310334
  0.5041101332520332  0.7378702258328517  1.0037329998725011
  0.4854630548231846  0.7489002458687755  0.4845588115120085
  0.7645117647180157 -0.0129626007768433  1.0036154223340761
  0.7506963416574964  1.0056730299148133  0.5017764909715479
  0.7612953607475138  0.5009485393233063 -0.0214023092777679
  0.7439086223304177  0.4899914000529513  0.5041981688978192
  0.7458208605767723  0.2471802262358495  0.2476832244451455
  0.7443969322627972  0.2407901954601892  0.7535041965210874
  0.7576220148770638  0.7565785782568692  0.2507714113895148
  0.7637506878004795  0.7714002676547729  0.7486596844285416
  0.2540055610326437  0.2523945756869163  0.9974534132045089
  0.2513301614467867  0.2533408120995299  0.4850631072048593
  0.2370343384866621  0.0104152128779269  0.2500188219778835
  0.2512778255007788 -0.0034470141891542  0.7362836812711911
  0.2549553215509209  0.5257483923749463  0.2452013343761305
  0.2445076676095387  0.5115746517181544  0.7325192414469991
  0.2242619002710900  0.7342119964504286 -0.0069833973295547
  0.2451824272067823  0.7487022785717231  0.4817700943484519
  0.0123834582848436 -0.0098165948115910  0.0075256747301132
  0.9935077053977160 -0.0076056034753837  0.4979113838671442
  0.9992220394958278  0.4935706620002229  0.0127905591556569
 -0.0116144165895873  0.4938923718249463  0.5109070676063694
  0.0004224273763144  0.2496179071727930  0.2365640100465901
 -0.0047228408104517  0.2287006735085376  0.7430903032574941
 -0.0029504239065394  0.7399263997603934  0.2611687902765066
  1.0011734843812852  0.7502409313703667  0.7360172279237240
  0.5119910453179808  0.0064478662635834  0.0233315924430995
  0.5063043189937350  1.0082742158287228  0.4765376783483620
  0.5226443872264714  0.4876803315102775  0.9880099040275154
  0.4984889985062952  0.4887444077440048  0.5029225520446279
  0.5088285613532595  0.2449566295504052  0.2512815718756082
  0.5024262842038622  0.2560607037675139  0.7399252339750592
  0.5055209714404255  0.7467130062132686  0.2455514645948274
  0.5017907463557502  0.7651826911475074  0.7397469569734144
  0.7554681288242585  0.2327221722677471  1.0026178436938842
  0.7400733631992786  0.2602625305540049  0.4970138705344207
  0.7472131495584502  1.0084614665452303  0.2631895705394270
  0.7387127758082597  0.0039235172157566  0.7639541334848410
  0.7591873159285271  0.5196837668593427  0.2653171166618155
  0.7436015158762547  0.4914830983947375  0.7546980537674688
  0.7555127561269295  0.7486515747480699 -0.0171530757257939
  0.7638361547399011  0.7676182616269048  0.4941317444038794
 
  0.18329759E-02  0.40653336E-02  0.35201230E-02
  0.21380803E-02 -0.38417438E-02  0.88355803E-03
  0.40963784E-02  0.32400089E-02  0.17356866E-02
  0.34468185E-02  0.29302749E-02 -0.42735717E-02
  0.36521163E-02  0.11010353E-02  0.73561832E-02
 -0.72803646E-02 -0.24611970E-02  0.32541844E-02
  0.45944465E-02  0.43474629E-02  0.10228325E-02
 -0.63822441E-02 -0.48995724E-02  0.68876359E-03
  0.50356949E-02 -0.42435199E-02 -0.54391297E-02
  0.28672943E-02  0.13519235E-03 -0.50932994E-03
 -0.39680301E-03 -0.66854917E-02  0.36329812E-02
 -0.25371427E-02 -0.28511181E-02  0.66576133E-02
  0.27272303E-02 -0.29576514E-02 -0.37795499E-02
  0.22183303E-02 -0.24516800E-04 -0.27853719E-02
  0.14446250E-02  0.32520050E-02 -0.24710233E-02
 -0.17777710E-02  0.14269082E-04  0.23968701E-02
  0.26369240E-02 -0.73684473E-02 -0.89462087E-03
 -0.23041074E-02  0.22940248E-02 -0.71658253E-03
  0.47067326E-02  0.16498165E-02  0.93843362E-03
  0.27929233E-02 -0.24950829E-03 -0.70464762E-02
 -0.17039906E-02 -0.40314628E-02  0.27528610E-03
 -0.26154182E-02  0.62211226E-02 -0.88386879E-03
  0.10468864E-03 -0.21890688E-02  0.57927463E-02
 -0.52386191E-03  0.27530510E-02  0.22992045E-02
  0.40795342E-02  0.45680209E-02  0.12771298E-03
 -0.15600520E-02 -0.21533479E-02 -0.52871821E-02
 -0.23220464E-02 -0.18074242E-02 -0.39632184E-02
 -0.67268624E-03  0.10606625E-03  0.12188936E-02
  0.44227244E-02  0.52033893E-02 -0.28114630E-03
  0.28892618E-02 -0.42337017E-02 -0.59561501E-03
 -0.18580802E-02 -0.14547231E-04  0.28300474E-02
  0.14010569E-02 -0.47960382E-02 -0.95533951E-03
 -0.55851861E-03  0.60777971E-02 -0.42700830E-02
 -0.42795012E-02 -0.36312040E-02 -0.40260382E-02
  0.26799507E-02 -0.86113187E-03  0.24585786E-02
  0.74788570E-03 -0.45135787E-02  0.43624465E-02
  0.49209824E-03 -0.38383606E-02  0.71526840E-03
  0.22156796E-02  0.22316723E-02  0.81218939E-03
 -0.35494576E-02 -0.29299681E-02 -0.21640006E-02
 -0.68835693E-02 -0.11120334E-02 -0.22648724E-02
 -0.75968664E-02 -0.26136587E-02  0.20798447E-02
 -0.54189375E-02  0.43163998E-02 -0.69004615E-02
  0.12190975E-02  0.55995709E-02  0.27386847E-02
  0.46331661E-03 -0.92561222E-03  0.22290502E-02
 -0.75860800E-02 -0.65926776E-03 -0.13732467E-02
  0.19291229E-02  0.12604796E-03  0.16157064E-02
  0.20816272E-02  0.29001137E-02  0.48110558E-02
 -0.21257009E-02  0.18779846E-02 -0.47615104E-02
 -0.52159806E-02  0.37560875E-02  0.85751042E-03
 -0.21001260E-03 -0.21590720E-02 -0.99456220E-03
  0.31246109E-02  0.16111994E-02 -0.19592502E-02
 -0.24967428E-02 -0.21046140E-02 -0.64134375E-03
 -0.10544875E-02  0.46051223E-02 -0.29471391E-03
 -0.12133147E-02 -0.19211306E-02 -0.60262218E-02
 -0.36199817E-02  0.12461899E-02 -0.25340588E-02
  0.80197844E-03  0.42935622E-02  0.10127043E-02
  0.19190441E-02  0.23268075E-02  0.41954152E-02
  0.51939100E-02  0.53914646E-02 -0.43793232E-02
 -0.31950731E-03 -0.38104205E-02 -0.68018893E-03
 -0.24626928E-02 -0.30353380E-02  0.21718768E-02
  0.43065429E-02  0.16725758E-03  0.61015901E-04
 -0.14674387E-02  0.17990925E-02  0.16148892E-02
  0.12201748E-02  0.25210516E-02  0.79775107E-02
 -0.27749084E-02 -0.10883703E-02 -0.21908809E-02
 
           1
   1.00000000000000     
 -0.53015329E+00 -0.70537167E-02 -0.66710048E-02 -0.52329093E+00
  0.23261327E+00  0.11164084E-01  0.44629939E-02
  0.25781423E+00  0.99729971E+00  0.49127850E+00
  0.25123116E+00  0.49872933E+00  0.10128177E-01
  0.24448440E+00  0.51593365E+00  0.50095725E+00
  0.24781693E+00  0.24287500E+00  0.25137968E+00
  0.26288084E+00  0.23260984E+00  0.71843948E+00
  0.23467807E+00  0.76853113E+00  0.24155861E+00
  0.25447519E+00  0.75116793E+00  0.76121023E+00
  0.61975784E-03  0.25178451E+00  0.56403156E-02
  0.58604641E-02  0.24361016E+00  0.49222737E+00
  0.98963353E+00  0.99898100E+00  0.26113676E+00
  0.34423882E-02  0.99610530E+00  0.74945326E+00
  0.99894778E+00  0.50121174E+00  0.25833075E+00
  0.97335366E+00  0.51677866E+00  0.74195653E+00
  0.99762452E+00  0.72700667E+00  0.11741459E-01
  0.98692968E+00  0.73846371E+00  0.50978058E+00
  0.51998646E+00  0.25684516E+00  0.99967632E+00
  0.51808501E+00  0.24685582E+00  0.49169839E+00
  0.51334706E+00  0.98895167E+00  0.24327207E+00
  0.49936318E+00  0.99865332E+00  0.73960788E+00
  0.49048142E+00  0.51460077E+00  0.25761469E+00
  0.49141868E+00  0.50435639E+00  0.75334707E+00
  0.50412126E+00  0.73763751E+00  0.43493465E-02
  0.48540737E+00  0.74919293E+00  0.48480262E+00
  0.76494544E+00  0.98752285E+00  0.36268916E-02
  0.75053050E+00  0.54441753E-02  0.50121535E+00
  0.76104852E+00  0.50075648E+00  0.97817737E+00
  0.74383711E+00  0.49000270E+00  0.50432786E+00
  0.74629101E+00  0.24773321E+00  0.24765099E+00
  0.74470407E+00  0.24034003E+00  0.75344136E+00
  0.75742449E+00  0.75657710E+00  0.25107267E+00
  0.76389963E+00  0.77089038E+00  0.74855908E+00
  0.25394619E+00  0.25304069E+00  0.99699801E+00
  0.25087523E+00  0.25295495E+00  0.48463703E+00
  0.23731923E+00  0.10323576E-01  0.25027981E+00
  0.25135733E+00  0.99607315E+00  0.73674845E+00
  0.25500763E+00  0.52534034E+00  0.24527827E+00
  0.24474320E+00  0.51181181E+00  0.73260450E+00
  0.22388458E+00  0.73390065E+00  0.99278812E+00
  0.24445067E+00  0.74858431E+00  0.48153115E+00
  0.11575879E-01  0.98990583E+00  0.77491427E-02
  0.99293165E+00  0.99285344E+00  0.49717790E+00
  0.99935163E+00  0.49416588E+00  0.13079948E-01
  0.98843484E+00  0.49379396E+00  0.51114417E+00
  0.99961599E+00  0.24954809E+00  0.23641988E+00
  0.99548223E+00  0.22871400E+00  0.74326160E+00
  0.99727086E+00  0.74023462E+00  0.26167900E+00
  0.94751335E-03  0.75044064E+00  0.73551104E+00
  0.51143656E+00  0.68473387E-02  0.23422916E-01
  0.50628199E+00  0.80447049E-02  0.47643257E+00
  0.52297655E+00  0.48785150E+00  0.98780051E+00
  0.49822358E+00  0.48852077E+00  0.50285548E+00
  0.50871646E+00  0.24544621E+00  0.25124926E+00
  0.50229730E+00  0.25585652E+00  0.73928540E+00
  0.50513615E+00  0.74684561E+00  0.24528256E+00
  0.50187600E+00  0.76563909E+00  0.73985330E+00
  0.75567213E+00  0.23296945E+00  0.30627957E-02
  0.74062550E+00  0.26083548E+00  0.49654576E+00
  0.74717918E+00  0.80564142E-02  0.26311834E+00
  0.73845098E+00  0.36009353E-02  0.76418636E+00
  0.75964512E+00  0.51970139E+00  0.26532260E+00
  0.74344552E+00  0.49167440E+00  0.75486957E+00
  0.75564247E+00  0.74891953E+00  0.98369403E+00
  0.76354117E+00  0.76750266E+00  0.49389975E+00
  0.00000000E+00  0.00000000E+00  0.00000000E+00
  0.00000000E+00  0.00000000E+00  0.00000000E+00
  0.00000000E+00  0.00000000E+00  0.00000000E+00
  0.00000000E+00  0.00000000E+00  0.00000000E+00
  0.00000000E+00  0.00000000E+00  0.00000000E+00
  0.00000000E+00  0.00000000E+00  0.00000000E+00
  0.00000000E+00  0.00000000E+00  0.00000000E+00
  0.00000000E+00  0.00000000E+00  0.00000000E+00
  0.00000000E+00  0.00000000E+00  0.00000000E+00
  0.00000000E+00  0.00000000E+00  0.00000000E+00
  0.00000000E+00  0.00000000E+00  0.00000000E+00
  0.00000000E+00  0.00000000E+00  0.00000000E+00
  0.00000000E+00  0.00000000E+00  0.00000000E+00
  0.00000000E+00  0.00000000E+00  0.00000000E+00
  0.00000000E+00  0.00000000E+00  0.00000000E+00
  0.00000000E+00  0.00000000E+00  0.00000000E+00
  0.00000000E+00  0.00000000E+00  0.00000000E+00
  0.00000000E+00  0.00000000E+00  0.00000000E+00
  0.00000000E+00  0.00000000E+00  0.00000000E+00
  0.00000000E+00  0.00000000E+00  0.00000000E+00
  0.00000000E+00  0.00000000E+00  0.00000000E+00
  0.00000000E+00  0.00000000E+00  0.00000000E+00
  0.00000000E+00  0.00000000E+00  0.00000000E+00
  0.00000000E+00  0.00000000E+00  0.00000000E+00
  0.00000000E+00  0.00000000E+00  0.00000000E+00
  0.00000000E+00  0.00000000E+00  0.00000000E+00
  0.00000000E+00  0.00000000E+00  0.00000000E+00
  0.00000000E+00  0.00000000E+00  0.00000000E+00
  0.00000000E+00  0.00000000E+00  0.00000000E+00
  0.00000000E+00  0.00000000E+00  0.00000000E+00
  0.00000000E+00  0.00000000E+00  0.00000000E+00
  0.00000000E+00  0.00000000E+00  0.00000000E+00
  0.00000000E+00  0.00000000E+00  0.00000000E+00
  0.00000000E+00  0.00000000E+00  0.00000000E+00
  0.00000000E+00  0.00000000E+00  0.00000000E+00
  0.00000000E+00  0.00000000E+00  0.00000000E+00
  0.00000000E+00  0.00000000E+00  0.00000000E+00
  0.00000000E+00  0.00000000E+00  0.00000000E+00
  0.00000000E+00  0.00000000E+00  0.00000000E+00
  0.00000000E+00  0.00000000E+00  0.00000000E+00
  0.00000000E+00  0.00000000E+00  0.00000000E+00
  0.00000000E+00  0.00000000E+00  0.00000000E+00
  0.00000000E+00  0.00000000E+00  0.00000000E+00
  0.00000000E+00  0.00000000E+00  0.00000000E+00
  0.00000000E+00  0.00000000E+00  0.00000000E+00
  0.00000000E+00  0.00000000E+00  0.00000000E+00
  0.00000000E+00  0.00000000E+00  0.00000000E+00
  0.00000000E+00  0.00000000E+00  0.00000000E+00
  0.00000000E+00  0.00000000E+00  0.00000000E+00
  0.00000000E+00  0.00000000E+00  0.00000000E+00
  0.00000000E+00  0.00000000E+00  0.00000000E+00
  0.00000000E+00  0.00000000E+00  0.00000000E+00
  0.00000000E+00  0.00000000E+00  0.00000000E+00
  0.00000000E+00  0.00000000E+00  0.00000000E+00
  0.00000000E+00  0.00000000E+00  0.00000000E+00
  0.00000000E+00  0.00000000E+00  0.00000000E+00
  0.00000000E+00  0.00000000E+00  0.00000000E+00
  0.00000000E+00  0.00000000E+00  0.00000000E+00
  0.00000000E+00  0.00000000E+00  0.00000000E+00
  0.00000000E+00  0.00000000E+00  0.00000000E+00
  0.00000000E+00  0.00000000E+00  0.00000000E+00
  0.00000000E+00  0.00000000E+00  0.00000000E+00
  0.00000000E+00  0.00000000E+00  0.00000000E+00
  0.00000000E+00  0.00000000E+00  0.00000000E+00
  0.00000000E+00  0.00000000E+00  0.00000000E+00
  0.00000000E+00  0.00000000E+00  0.00000000E+00
  0.00000000E+00  0.00000000E+00  0.00000000E+00
  0.00000000E+00  0.00000000E+00  0.00000000E+00
  0.00000000E+00  0.00000000E+00  0.00000000E+00
  0.00000000E+00  0.00000000E+00  0.00000000E+00
  0.00000000E+00  0.00000000E+00  0.00000000E+00
  0.00000000E+00  0.00000000E+00  0.00000000E+00
  0.00000000E+00  0.00000000E+00  0.00000000E+00
  0.00000000E+00  0.00000000E+00  0.00000000E+00
  0.00000000E+00  0.00000000E+00  0.00000000E+00
  0.00000000E+00  0.00000000E+00  0.00000000E+00
  0.00000000E+00  0.00000000E+00  0.00000000E+00
  0.00000000E+00  0.00000000E+00  0.00000000E+00
  0.00000000E+00  0.00000000E+00  0.00000000E+00
  0.00000000E+00  0.00000000E+00  0.00000000E+00
  0.00000000E+00  0.00000000E+00  0.00000000E+00
  0.00000000E+00  0.00000000E+00  0.00000000E+00
  0.00000000E+00  0.00000000E+00  0.00000000E+00
  0.00000000E+00  0.00000000E+00  0.00000000E+00
  0.00000000E+00  0.00000000E+00  0.00000000E+00
  0.00000000E+00  0.00000000E+00  0.00000000E+00
  0.00000000E+00  0.00000000E+00  0.00000000E+00
  0.00000000E+00  0.00000000E+00  0.00000000E+00
  0.00000000E+00  0.00000000E+00  0.00000000E+00
  0.00000000E+00  0.00000000E+00  0.00000000E+00
  0.00000000E+00  0.00000000E+00  0.00000000E+00
  0.00000000E+00  0.00000000E+00  0.00000000E+00
  0.00000000E+00  0.00000000E+00  0.00000000E+00
  0.00000000E+00  0.00000000E+00  0.00000000E+00
  0.00000000E+00  0.00000000E+00  0.00000000E+00
  0.00000000E+00  0.00000000E+00  0.00000000E+00
  0.00000000E+00  0.00000000E+00  0.00000000E+00
  0.00000000E+00  0.00000000E+00  0.00000000E+00
  0.00000000E+00  0.00000000E+00  0.00000000E+00
  0.00000000E+00  0.00000000E+00  0.00000000E+00
  0.00000000E+00  0.00000000E+00  0.00000000E+00
  0.00000000E+00  0.00000000E+00  0.00000000E+00
  0.00000000E+00  0.00000000E+00  0.00000000E+00
  0.00000000E+00  0.00000000E+00  0.00000000E+00
  0.00000000E+00  0.00000000E+00  0.00000000E+00
  0.00000000E+00  0.00000000E+00  0.00000000E+00
  0.00000000E+00  0.00000000E+00  0.00000000E+00
  0.00000000E+00  0.00000000E+00  0.00000000E+00
  0.00000000E+00  0.00000000E+00  0.00000000E+00
  0.00000000E+00  0.00000000E+00  0.00000000E+00
  0.00000000E+00  0.00000000E+00  0.00000000E+00
  0.00000000E+00  0.00000000E+00  0.00000000E+00
  0.00000000E+00  0.00000000E+00  0.00000000E+00
  0.00000000E+00  0.00000000E+00  0.00000000E+00
  0.00000000E+00  0.00000000E+00  0.00000000E+00
  0.00000000E+00  0.00000000E+00  0.00000000E+00
  0.00000000E+00  0.00000000E+00  0.00000000E+00
  0.00000000E+00  0.00000000E+00  0.00000000E+00
  0.00000000E+00  0.00000000E+00  0.00000000E+00
  0.00000000E+00  0.00000000E+00  0.00000000E+00
  0.00000000E+00  0.00000000E+00  0.00000000E+00
  0.00000000E+00  0.00000000E+00  0.00000000E+00
  0.00000000E+00  0.00000000E+00  0.00000000E+00
  0.00000000E+00  0.00000000E+00  0.00000000E+00
  0.00000000E+00  0.00000000E+00  0.00000000E+00
  0.00000000E+00  0.00000000E+00  0.00000000E+00
  0.00000000E+00  0.00000000E+00  0.00000000E+00
  0.00000000E+00  0.00000000E+00  0.00000000E+00
