Zn2 F4                                  
   1.00000000000000     
     9.5679995346000002    0.0000000000000000    0.0000000000000000
     0.0000000000000000    9.5679995346000002    0.0000000000000000
     0.0000000000000000    0.0000000000000000    9.6039145660000003
   Zn   F 
    24    48
Direct
  0.2535644369274869  0.2561796986897283  0.1743231504589299
  0.2432275796814180  0.2565366591717660  0.4984710798439869
  0.2575584614531712  0.2457539483471410  0.8341702186751119
  0.2341478765738196  0.7499235395591942  0.1673055567114969
  0.2398810469673001  0.7500333978312146  0.5001819610702539
  0.2473432926757237  0.7564345979959451  0.8416137630937512
  0.7445116786939856  0.2508635793533652  0.1554059763151595
  0.7568619561374795  0.2445812687040901  0.4991279367230516
  0.7488560691624039  0.2486479816541733  0.8303421280372476
  0.7427463470776193  0.7534842115699855  0.1638739838391104
  0.7549675576490863  0.7521297299092505  0.4878942445062270
  0.7618369973389881  0.7479495158822167  0.8264928830472767
  0.9991307916596662  1.0132473393391839  0.9907234811073957
  0.0102668028033701  0.9980337172744759  0.3299801951257322
  0.0026407950684429  1.0006016711257035  0.6658974713729783
 -0.0054743634905655  0.4932950419173056  0.0099619907280504
  0.9913431103625479  0.4957365996428533  0.3380163326681490
  1.0006381103246502  0.4860242624869766  0.6699944863912115
  0.5053784055100156  0.9816566711871479  0.9962361511750067
  0.4917547554289448  0.0034816463392224  0.3306871904191349
  0.4994735614446557  0.9960376927090711  0.6570689148863476
  0.4955398570652687  0.5018007047935974  0.0079661624204235
  0.5034784689105362  0.4975139292070993  0.3419439341694421
  0.5110290471222995  0.5025508629536056  0.6592330448243496
  0.3490863430235359  0.3490734719789696 -0.0000205471750866
  0.3527163656484165  0.3451475886392896  0.3290977414496890
  0.3521246480360332  0.3499234037033004  0.6642793226695572
  0.3284564475873931  0.8590461653869935 -0.0062846838928280
  0.3295981727561161  0.8590353659899399  0.3225982788587711
  0.3396139038154073  0.8589505568317655  0.6601714297859242
  0.8530141650050956  0.3426610651597636  1.0012122878175636
  0.8422414964939072  0.3492325420155269  0.3289030378098374
  0.8471455909452872  0.3449244282543515  0.6783477740263102
  0.8506327024615280  0.8538921331241640  1.0026655109826561
  0.8513525391478093  0.8423763482088826  0.3265991349051444
  0.8446598635881226  0.8482633946621204  0.6574034289755580
  0.4172717092111863  0.1189289065200793  0.1607103501257625
  0.3975127783421334  0.0949450183784582  0.4959537490904182
  0.4219811698497960  0.0963255773683912  0.8389308057485433
  0.3943645768260571  0.5947365780132802  0.1795355713130503
  0.3972226049096158  0.6061833871424703  0.5182449305587852
  0.4102324013310160  0.6198067182679305  0.8575914498892487
  0.9182323764460609  0.1209351822405367  0.1649327099037411
  0.8980227296021370  0.0994606494627084  0.5005987470583034
  0.9061510085640622  0.1114317240930195  0.8297937226646513
  0.8844935824195194  0.5727191718098259  0.1707451189146477
  0.9123673250773070  0.5961922938142504  0.5175036428602617
  0.8943713538971477  0.5809500942190821  0.8388642348901412
  0.1649280305166770  0.1448038179747429  0.0019464267994760
  0.1647324552526007  0.1436141604052762  0.3353028764835582
  0.1642856834432565  0.1522745213776496  0.6803549831885893
  0.1438138670025637  0.6471596652273448  0.0115023735724310
  0.1391474928688504  0.6573899947361720  0.3376349408535698
  0.1648805861664015  0.6468247117797009  0.6791692942419066
  0.6554035918967451  0.1471480135927777  0.9961345265464767
  0.6591960543936537  0.1368134665279028  0.3285326616541506
  0.6565617952843159  0.1489332008750239  0.6595617446444211
  0.6507939346778668  0.6541004180795200  0.0070809299719887
  0.6427206307561681  0.6553354152677677  0.3428092819747784
  0.6641119361725019  0.6520595404591275  0.6495859667234721
  0.1055825122716559  0.3917549738571854  0.1833937300288559
  0.0992211205656888  0.4170350333236540  0.5008187822631786
  0.0930916109581015  0.3970272574395907  0.8425545016747514
  0.0814259616408496  0.8974610503291768  0.1606979360312464
  0.1112503657700740  0.9127979053509114  0.5032672564181101
  0.0838604159813660  0.9119430148510230  0.8293124807200373
  0.6187336004015896  0.4260035592144719  0.1670329724826249
  0.5922436996574211  0.3906355147884800  0.5035767447119918
  0.5922855374846072  0.4082056912127334  0.8288453702077738
  0.5820521771341475  0.9037178027170282  0.1688035518763356
  0.6137465210271311  0.9192241136535142  0.4880610074139709
  0.5950650261380566  0.8828346782894506  0.8351092742532835
 
 -0.24790218E-02 -0.16265601E-02  0.16043117E-02
  0.15960321E-02  0.35439981E-02 -0.28179984E-02
  0.29849762E-03 -0.17796802E-02  0.73004435E-03
  0.13706462E-03  0.70490292E-03  0.80905518E-03
  0.15534615E-02  0.65678437E-03  0.14166417E-02
 -0.19528013E-02 -0.21846306E-02  0.84494215E-03
 -0.26965009E-04  0.10566116E-02 -0.13242384E-02
 -0.46078245E-03 -0.90593761E-03 -0.35053730E-02
 -0.12601849E-02 -0.14849796E-02  0.70516073E-03
  0.34513138E-03 -0.26548715E-03 -0.36883309E-02
 -0.15479503E-02 -0.35879918E-02  0.24424544E-03
  0.11873921E-02  0.41460306E-02 -0.33297091E-03
  0.26154320E-02 -0.16821928E-02  0.38842700E-02
 -0.37413254E-02 -0.36457504E-04 -0.68238101E-03
 -0.15743287E-02 -0.36158341E-02 -0.24770831E-02
 -0.83057541E-03  0.24864393E-02 -0.16895863E-02
 -0.34473740E-03  0.24455376E-02 -0.32284623E-03
 -0.13569009E-02  0.26688820E-02  0.15146139E-02
  0.11439523E-02 -0.10213343E-02  0.62921192E-03
 -0.75530580E-03 -0.20278176E-02 -0.14094558E-02
  0.12510182E-02 -0.21597316E-02  0.11553119E-03
 -0.14521402E-02 -0.11572543E-02  0.82898653E-03
  0.21453390E-02  0.54143710E-03 -0.32430821E-03
 -0.38808613E-03 -0.41416890E-02  0.18057637E-02
 -0.27799634E-02  0.64227673E-03  0.69522408E-03
  0.27782770E-02  0.12119515E-03 -0.17214421E-03
 -0.28005907E-02  0.15872777E-02  0.16357222E-02
  0.46581192E-02 -0.46061324E-02  0.56316142E-02
  0.32169326E-02 -0.11999950E-02  0.42835735E-03
 -0.24846917E-02  0.16187704E-02  0.21437070E-02
  0.33050345E-02 -0.86789868E-02 -0.96945828E-03
  0.87664324E-03  0.72592689E-02  0.66579795E-02
 -0.59899986E-02 -0.12614471E-02 -0.38561326E-02
 -0.58749658E-03 -0.62378957E-02 -0.17091599E-02
  0.35543508E-02  0.11525266E-02 -0.51630592E-02
 -0.35613811E-02  0.56585101E-02  0.16787587E-02
 -0.11564546E-02  0.86142206E-03  0.26964382E-02
  0.59159462E-02  0.69217864E-02  0.61459007E-03
  0.78589729E-03  0.53466370E-02 -0.51184745E-03
 -0.16123866E-02  0.12928824E-03  0.20804300E-02
  0.10671624E-03 -0.21706069E-02  0.57615262E-02
 -0.63445939E-02  0.51417746E-02  0.21874035E-03
  0.50118181E-03  0.50459750E-02 -0.19224977E-02
  0.82944413E-02  0.29521599E-03 -0.66524942E-02
 -0.11846803E-02  0.56755138E-03 -0.13326069E-02
  0.26187679E-02  0.43619261E-02 -0.76181354E-03
  0.22842160E-03  0.24052861E-02  0.59165842E-02
 -0.51527111E-03 -0.56932357E-02  0.77976335E-04
 -0.29079095E-02 -0.50316542E-03 -0.30073720E-02
 -0.71283498E-03  0.25725293E-02 -0.35907993E-03
 -0.51393457E-03  0.42382738E-02  0.36148147E-02
  0.11849252E-02 -0.60268250E-02  0.18734293E-02
 -0.62982911E-02 -0.52065397E-02  0.45858751E-02
 -0.12168187E-02  0.89531634E-03  0.19715441E-03
 -0.55190092E-03  0.41794134E-02  0.63925080E-03
 -0.52137267E-02 -0.16695888E-02  0.36857708E-02
 -0.10740282E-02  0.66382545E-02 -0.11409148E-02
  0.17657264E-02  0.53701173E-02 -0.16513224E-02
  0.82800174E-02  0.69982263E-02 -0.28118644E-02
  0.79241737E-02 -0.27218727E-02  0.24861507E-02
 -0.47065287E-03  0.81862594E-03 -0.26709910E-02
 -0.28671892E-02  0.22918728E-02  0.39478716E-02
  0.43953025E-02 -0.51591349E-02 -0.75528466E-02
 -0.21944269E-02  0.56770214E-03 -0.24599956E-02
  0.35609210E-02  0.16194384E-02 -0.58634739E-02
  0.27303282E-02  0.21292933E-02  0.26931789E-02
 -0.35875117E-02 -0.13889644E-03  0.36709748E-03
  0.68527707E-03 -0.39127085E-02 -0.35142490E-03
  0.78177504E-03  0.19689519E-02  0.32543266E-02
 -0.10014530E-02 -0.53928750E-02 -0.27888381E-02
  0.26965942E-03 -0.78352949E-03 -0.25436251E-02
  0.95091804E-02  0.44057558E-02  0.45168462E-02
 
           1
   1.00000000000000     
  0.24215985E+00  0.61582876E-02  0.59386553E-02  0.23611138E+00
  0.25330534E+00  0.25600970E+00  0.17449020E+00
  0.24339439E+00  0.25690706E+00  0.49817766E+00
  0.25758966E+00  0.24556794E+00  0.83424623E+00
  0.23416220E+00  0.74999721E+00  0.16738980E+00
  0.24004341E+00  0.75010204E+00  0.50032947E+00
  0.24713920E+00  0.75620627E+00  0.84170174E+00
  0.74450886E+00  0.25097401E+00  0.15526809E+00
  0.75681380E+00  0.24448658E+00  0.49876294E+00
  0.74872436E+00  0.24849278E+00  0.83041555E+00
  0.74278242E+00  0.75345646E+00  0.16348994E+00
  0.75480577E+00  0.75175473E+00  0.48791968E+00
  0.76196110E+00  0.74838284E+00  0.82645821E+00
  0.99940414E+00  0.13071525E-01  0.99112793E+00
  0.98757780E-02  0.99802991E+00  0.32990914E+00
  0.24762540E-02  0.22376203E-03  0.66563955E+00
  0.99443883E+00  0.49355491E+00  0.97860639E-02
  0.99130708E+00  0.49599220E+00  0.33798272E+00
  0.49629375E-03  0.48630320E+00  0.67015219E+00
  0.50549797E+00  0.98154993E+00  0.99630167E+00
  0.49167581E+00  0.32697089E-02  0.33054043E+00
  0.49960431E+00  0.99581197E+00  0.65708094E+00
  0.49538809E+00  0.50167975E+00  0.80524800E-02
  0.50370269E+00  0.49757052E+00  0.34191017E+00
  0.51098849E+00  0.50211799E+00  0.65942107E+00
  0.34879579E+00  0.34914060E+00  0.51842481E-04
  0.35300674E+00  0.34516026E+00  0.32907982E+00
  0.35183194E+00  0.35008930E+00  0.66444964E+00
  0.32894329E+00  0.85856476E+00  0.99430170E+00
  0.32993439E+00  0.85890995E+00  0.32264288E+00
  0.33935422E+00  0.85911974E+00  0.66039464E+00
  0.85335959E+00  0.34175398E+00  0.11113437E-02
  0.84233312E+00  0.34999124E+00  0.32959629E+00
  0.84651955E+00  0.34479259E+00  0.67794626E+00
  0.85057130E+00  0.85324018E+00  0.24875461E-02
  0.85172402E+00  0.84249680E+00  0.32606154E+00
  0.84428765E+00  0.84885479E+00  0.65757823E+00
  0.41715084E+00  0.11901894E+00  0.16099111E+00
  0.39813108E+00  0.95668449E-01  0.49601774E+00
  0.42206331E+00  0.96884381E-01  0.83887751E+00
  0.39419606E+00  0.59475009E+00  0.17975219E+00
  0.39723376E+00  0.60595653E+00  0.51884484E+00
  0.40956930E+00  0.62034411E+00  0.85761423E+00
  0.91828476E+00  0.12146256E+00  0.16473253E+00
  0.89888962E+00  0.99491504E-01  0.49990606E+00
  0.90602719E+00  0.11149104E+00  0.82965497E+00
  0.88476728E+00  0.57317506E+00  0.17066580E+00
  0.91239120E+00  0.59644368E+00  0.51811970E+00
  0.89431750E+00  0.58035507E+00  0.83887235E+00
  0.16462411E+00  0.14475123E+00  0.16332866E-02
  0.16465795E+00  0.14388303E+00  0.33526549E+00
  0.16423197E+00  0.15271748E+00  0.68073137E+00
  0.14393771E+00  0.64652977E+00  0.11697443E-01
  0.13848923E+00  0.65684583E+00  0.33811244E+00
  0.16475341E+00  0.64691829E+00  0.67918982E+00
  0.65534591E+00  0.14758483E+00  0.99620109E+00
  0.65865114E+00  0.13663897E+00  0.32891644E+00
  0.65644954E+00  0.14962700E+00  0.65944295E+00
  0.65097848E+00  0.65466168E+00  0.69089873E-02
  0.64358602E+00  0.65606684E+00  0.34251650E+00
  0.66494013E+00  0.65177506E+00  0.64984484E+00
  0.10553332E+00  0.39184053E+00  0.18311562E+00
  0.98921456E-01  0.41727457E+00  0.50122985E+00
  0.93550986E-01  0.39648805E+00  0.84176807E+00
  0.81196611E-01  0.89752038E+00  0.16044179E+00
  0.11162254E+00  0.91296716E+00  0.50265673E+00
  0.84145776E-01  0.91216556E+00  0.82959291E+00
  0.61835865E+00  0.42598904E+00  0.16707120E+00
  0.59231532E+00  0.39022658E+00  0.50354015E+00
  0.59236724E+00  0.40841148E+00  0.82918422E+00
  0.58194751E+00  0.90315417E+00  0.16851317E+00
  0.61377470E+00  0.91914222E+00  0.48779615E+00
  0.59605888E+00  0.88329515E+00  0.83557959E+00
  0.00000000E+00  0.00000000E+00  0.00000000E+00
  0.00000000E+00  0.00000000E+00  0.00000000E+00
  0.00000000E+00  0.00000000E+00  0.00000000E+00
  0.00000000E+00  0.00000000E+00  0.00000000E+00
  0.00000000E+00  0.00000000E+00  0.00000000E+00
  0.00000000E+00  0.00000000E+00  0.00000000E+00
  0.00000000E+00  0.00000000E+00  0.00000000E+00
  0.00000000E+00  0.00000000E+00  0.00000000E+00
  0.00000000E+00  0.00000000E+00  0.00000000E+00
  0.00000000E+00  0.00000000E+00  0.00000000E+00
  0.00000000E+00  0.00000000E+00  0.00000000E+00
  0.00000000E+00  0.00000000E+00  0.00000000E+00
  0.00000000E+00  0.00000000E+00  0.00000000E+00
  0.00000000E+00  0.00000000E+00  0.00000000E+00
  0.00000000E+00  0.00000000E+00  0.00000000E+00
  0.00000000E+00  0.00000000E+00  0.00000000E+00
  0.00000000E+00  0.00000000E+00  0.00000000E+00
  0.00000000E+00  0.00000000E+00  0.00000000E+00
  0.00000000E+00  0.00000000E+00  0.00000000E+00
  0.00000000E+00  0.00000000E+00  0.00000000E+00
  0.00000000E+00  0.00000000E+00  0.00000000E+00
  0.00000000E+00  0.00000000E+00  0.00000000E+00
  0.00000000E+00  0.00000000E+00  0.00000000E+00
  0.00000000E+00  0.00000000E+00  0.00000000E+00
  0.00000000E+00  0.00000000E+00  0.00000000E+00
  0.00000000E+00  0.00000000E+00  0.00000000E+00
  0.00000000E+00  0.00000000E+00  0.00000000E+00
  0.00000000E+00  0.00000000E+00  0.00000000E+00
  0.00000000E+00  0.00000000E+00  0.00000000E+00
  0.00000000E+00  0.00000000E+00  0.00000000E+00
  0.00000000E+00  0.00000000E+00  0.00000000E+00
  0.00000000E+00  0.00000000E+00  0.00000000E+00
  0.00000000E+00  0.00000000E+00  0.00000000E+00
  0.00000000E+00  0.00000000E+00  0.00000000E+00
  0.00000000E+00  0.00000000E+00  0.00000000E+00
  0.00000000E+00  0.00000000E+00  0.00000000E+00
  0.00000000E+00  0.00000000E+00  0.00000000E+00
  0.00000000E+00  0.00000000E+00  0.00000000E+00
  0.00000000E+00  0.00000000E+00  0.00000000E+00
  0.00000000E+00  0.00000000E+00  0.00000000E+00
  0.00000000E+00  0.00000000E+00  0.00000000E+00
  0.00000000E+00  0.00000000E+00  0.00000000E+00
  0.00000000E+00  0.00000000E+00  0.00000000E+00
  0.00000000E+00  0.00000000E+00  0.00000000E+00
  0.00000000E+00  0.00000000E+00  0.00000000E+00
  0.00000000E+00  0.00000000E+00  0.00000000E+00
  0.00000000E+00  0.00000000E+00  0.00000000E+00
  0.00000000E+00  0.00000000E+00  0.00000000E+00
  0.00000000E+00  0.00000000E+00  0.00000000E+00
  0.00000000E+00  0.00000000E+00  0.00000000E+00
  0.00000000E+00  0.00000000E+00  0.00000000E+00
  0.00000000E+00  0.00000000E+00  0.00000000E+00
  0.00000000E+00  0.00000000E+00  0.00000000E+00
  0.00000000E+00  0.00000000E+00  0.00000000E+00
  0.00000000E+00  0.00000000E+00  0.00000000E+00
  0.00000000E+00  0.00000000E+00  0.00000000E+00
  0.00000000E+00  0.00000000E+00  0.00000000E+00
  0.00000000E+00  0.00000000E+00  0.00000000E+00
  0.00000000E+00  0.00000000E+00  0.00000000E+00
  0.00000000E+00  0.00000000E+00  0.00000000E+00
  0.00000000E+00  0.00000000E+00  0.00000000E+00
  0.00000000E+00  0.00000000E+00  0.00000000E+00
  0.00000000E+00  0.00000000E+00  0.00000000E+00
  0.00000000E+00  0.00000000E+00  0.00000000E+00
  0.00000000E+00  0.00000000E+00  0.00000000E+00
  0.00000000E+00  0.00000000E+00  0.00000000E+00
  0.00000000E+00  0.00000000E+00  0.00000000E+00
  0.00000000E+00  0.00000000E+00  0.00000000E+00
  0.00000000E+00  0.00000000E+00  0.00000000E+00
  0.00000000E+00  0.00000000E+00  0.00000000E+00
  0.00000000E+00  0.00000000E+00  0.00000000E+00
  0.00000000E+00  0.00000000E+00  0.00000000E+00
  0.00000000E+00  0.00000000E+00  0.00000000E+00
  0.00000000E+00  0.00000000E+00  0.00000000E+00
  0.00000000E+00  0.00000000E+00  0.00000000E+00
  0.00000000E+00  0.00000000E+00  0.00000000E+00
  0.00000000E+00  0.00000000E+00  0.00000000E+00
  0.00000000E+00  0.00000000E+00  0.00000000E+00
  0.00000000E+00  0.00000000E+00  0.00000000E+00
  0.00000000E+00  0.00000000E+00  0.00000000E+00
  0.00000000E+00  0.00000000E+00  0.00000000E+00
  0.00000000E+00  0.00000000E+00  0.00000000E+00
  0.00000000E+00  0.00000000E+00  0.00000000E+00
  0.00000000E+00  0.00000000E+00  0.00000000E+00
  0.00000000E+00  0.00000000E+00  0.00000000E+00
  0.00000000E+00  0.00000000E+00  0.00000000E+00
  0.00000000E+00  0.00000000E+00  0.00000000E+00
  0.00000000E+00  0.00000000E+00  0.00000000E+00
  0.00000000E+00  0.00000000E+00  0.00000000E+00
  0.00000000E+00  0.00000000E+00  0.00000000E+00
  0.00000000E+00  0.00000000E+00  0.00000000E+00
  0.00000000E+00  0.00000000E+00  0.00000000E+00
  0.00000000E+00  0.00000000E+00  0.00000000E+00
  0.00000000E+00  0.00000000E+00  0.00000000E+00
  0.00000000E+00  0.00000000E+00  0.00000000E+00
  0.00000000E+00  0.00000000E+00  0.00000000E+00
  0.00000000E+00  0.00000000E+00  0.00000000E+00
  0.00000000E+00  0.00000000E+00  0.00000000E+00
  0.00000000E+00  0.00000000E+00  0.00000000E+00
  0.00000000E+00  0.00000000E+00  0.00000000E+00
  0.00000000E+00  0.00000000E+00  0.00000000E+00
  0.00000000E+00  0.00000000E+00  0.00000000E+00
  0.00000000E+00  0.00000000E+00  0.00000000E+00
  0.00000000E+00  0.00000000E+00  0.00000000E+00
  0.00000000E+00  0.00000000E+00  0.00000000E+00
  0.00000000E+00  0.00000000E+00  0.00000000E+00
  0.00000000E+00  0.00000000E+00  0.00000000E+00
  0.00000000E+00  0.00000000E+00  0.00000000E+00
  0.00000000E+00  0.00000000E+00  0.00000000E+00
  0.00000000E+00  0.00000000E+00  0.00000000E+00
  0.00000000E+00  0.00000000E+00  0.00000000E+00
  0.00000000E+00  0.00000000E+00  0.00000000E+00
  0.00000000E+00  0.00000000E+00  0.00000000E+00
  0.00000000E+00  0.00000000E+00  0.00000000E+00
  0.00000000E+00  0.00000000E+00  0.00000000E+00
  0.00000000E+00  0.00000000E+00  0.00000000E+00
  0.00000000E+00  0.00000000E+00  0.00000000E+00
  0.00000000E+00  0.00000000E+00  0.00000000E+00
  0.00000000E+00  0.00000000E+00  0.00000000E+00
  0.00000000E+00  0.00000000E+00  0.00000000E+00
  0.00000000E+00  0.00000000E+00  0.00000000E+00
  0.00000000E+00  0.00000000E+00  0.00000000E+00
  0.00000000E+00  0.00000000E+00  0.00000000E+00
  0.00000000E+00  0.00000000E+00  0.00000000E+00
  0.00000000E+00  0.00000000E+00  0.00000000E+00
  0.00000000E+00  0.00000000E+00  0.00000000E+00
  0.00000000E+00  0.00000000E+00  0.00000000E+00
  0.00000000E+00  0.00000000E+00  0.00000000E+00
  0.00000000E+00  0.00000000E+00  0.00000000E+00
  0.00000000E+00  0.00000000E+00  0.00000000E+00
  0.00000000E+00  0.00000000E+00  0.00000000E+00
  0.00000000E+00  0.00000000E+00  0.00000000E+00
  0.00000000E+00  0.00000000E+00  0.00000000E+00
  0.00000000E+00  0.00000000E+00  0.00000000E+00
  0.00000000E+00  0.00000000E+00  0.00000000E+00
  0.00000000E+00  0.00000000E+00  0.00000000E+00
  0.00000000E+00  0.00000000E+00  0.00000000E+00
  0.00000000E+00  0.00000000E+00  0.00000000E+00
  0.00000000E+00  0.00000000E+00  0.00000000E+00
  0.00000000E+00  0.00000000E+00  0.00000000E+00
  0.00000000E+00  0.00000000E+00  0.00000000E+00
  0.00000000E+00  0.00000000E+00  0.00000000E+00
  0.00000000E+00  0.00000000E+00  0.00000000E+00
  0.00000000E+00  0.00000000E+00  0.00000000E+00
