MgF2NPT2x2x3                            
   1.00000000000000     
     9.2444238980900000    0.0000000000000000    0.0000000000000000
     0.0000000000000000    9.2444238980900000    0.0000000000000000
     0.0000000000000000    0.0000000000000000    9.1820558111700006
   Mg   F 
    24    48
Direct
  0.7570203081109570  0.7457404865193716  0.8280419552453594
  0.7592832682058328  0.7507019205283738  0.5044322901863894
  0.7534309363406247  0.7528687673106916  0.1674024847685911
  0.7516253257235782  0.2383418062798961  0.8355478736172105
  0.7313181103073503  0.2431589813408135  0.5133382823659763
  0.7575261702087605  0.2545916279517240  0.1747394932925531
  0.4996429048269503  0.4917691211224936  0.6634977305351651
  0.4993507255633935  0.5123418958177041  0.3268965444997311
  0.5105630264911157  0.5081133412112551  0.0045542094153462
  0.5074079263949787 -0.0070229283773253  0.6653587521210569
  0.4992160676723355  0.9948677969707912  0.3346426640306359
  0.4773777107460072  0.0069840216923596  0.9906371726366595
  0.2623877653990920  0.7363822139322834  0.8239690037434746
  0.2290400468093563  0.7600057853956984  0.4980509316628811
  0.2353807749023416  0.7357443997873440  0.1660898808196700
  0.2324916733646152  0.2481296178092163  0.8268268278904812
  0.2530020016967967  0.2467562645073424  0.5067958298690889
  0.2554112642077273  0.2810401011939707  0.1617837121825641
  0.0023885455157459  0.4844866795071809  0.6692132708167748
  0.9994844234896368  0.4896536316722211  0.3426711431371686
  0.9933065012189632  0.5085982094749565  0.0084706083026539
  0.9938707136292424  1.0001032506899543  0.6670517809205390
  0.9908883964654790  0.0099308825474584  0.3346583574740905
  0.9920645080179683  0.0161731980567675  0.9952654957587185
  0.1130727221340834  0.9177710038128419  0.8204930419179396
  0.0755548481362311  0.8983242304644216  0.4905241421614612
  0.0895426871918009  0.8979417889343665  0.1585907975066099
  0.0892066195014729  0.4025600341070111  0.8372673880647928
  0.1012390046999568  0.3962444341583629  0.5154129933907469
  0.1114253389085706  0.4268735472429045  0.1644343660728751
  0.8893520311978605  0.0871084511945528  0.8218038251572630
  0.8835147146454480  0.0916902387529161  0.5122086573963393
  0.8977896518198293  0.0970647501744744  0.1839441414573115
  0.8928113783156614  0.5868488061691481  0.8302011649451080
  0.9200311367788150  0.6067642477543453  0.5152542517280381
  0.9088437667913861  0.6052555506945630  0.1855021823750243
  0.8600205437435873  0.8318120289779509  0.6720571440667735
  0.8454589817036855  0.8487971371312799  0.3299008469486733
  0.8458516987108431  0.8551967511386654  0.9956747478072724
  0.8568938008307959  0.3217689726642110  0.6560456592881850
  0.8525928541734776  0.3410420681625647  0.3491222995793105
  0.8686126748720654  0.3269564566035816  0.0098560765757894
  0.6618598777096174  0.6402221355360437  0.6609674589430409
  0.6645157705696103  0.6520742245039628  0.3326984394880794
  0.6746670994812372  0.6415859214842125  0.9976678524446667
  0.6379613188768948  0.1601641236929243  0.6799496730824810
  0.6544364581573978  0.1472058811920551  0.3442204103962547
  0.6592469809951107  0.1518398882352928  0.0059336417873574
  0.5900942791136083  0.9084548263002418  0.8389639070274504
  0.6036375926481221  0.9073693363365194  0.5030433657308839
  0.5903113425094968  0.8997953868495864  0.1545102267963056
  0.6118058184191678  0.3950146686970337  0.8297687603241836
  0.5995532033334227  0.4031454589722430  0.5057734229813189
  0.6111462155162765  0.4217503556915817  0.1698880600741658
  0.3968591095425174  0.1121451420419207  0.8205499773492034
  0.3954914536136029  0.0821663464448884  0.4893400589608944
  0.3903648822343485  0.1037841736248308  0.1776673404023736
  0.4260190783374958  0.6065799378536790  0.8296775550017090
  0.3970894067028393  0.5938595638488987  0.5068052131657738
  0.4120594435999235  0.6066180909937300  0.1541534291212700
  0.3431245881963225  0.8387659487706941  0.6509966085211779
  0.3403744102469191  0.8453968078603373  0.3250365164889933
  0.3393833892359051  0.8454763005694861  0.9865615690168373
  0.3452166739862951  0.3584541649146892  0.6755542510971841
  0.3506155261602923  0.3664564237707573  0.3304085707987343
  0.3666220929872332  0.3499032679433456  0.9844616388456910
  0.1652197019827366  0.6344033931473672  0.6702847207673991
  0.1732229746657045  0.6342130464135801  0.3360880963529898
  0.1516681966185149  0.6438640511065604  0.9851051183825656
  0.1472100774578381  0.1467186882487662  0.6603388882864744
  0.1345617424853111  0.1757194109761704  0.3298251286968131
  0.1361426764849817  0.1747146079117807  0.0027348107115116
 
  0.36462749E-02  0.79185415E-02 -0.25534477E-02
 -0.10037336E-02  0.34592573E-04 -0.25536084E-02
 -0.12620239E-02  0.22780769E-02 -0.63805058E-02
  0.85568437E-03  0.11977311E-02 -0.28255673E-02
  0.10540661E-02 -0.25807122E-02  0.33248716E-03
 -0.27205063E-02 -0.40157982E-02  0.26202900E-02
  0.20562884E-03 -0.34842114E-02 -0.66413313E-02
 -0.36460387E-03  0.12827829E-02 -0.10002852E-02
  0.16929916E-02  0.45874241E-03 -0.95790027E-03
  0.39005163E-03 -0.64194180E-02  0.39985361E-02
  0.71848459E-02 -0.22246643E-02  0.14275665E-03
  0.53018993E-02 -0.21753128E-02 -0.41652176E-03
  0.42673716E-02 -0.17406875E-02  0.20028448E-02
  0.15338877E-02  0.46464972E-02  0.46231099E-02
 -0.17826231E-02 -0.22954360E-02 -0.75596107E-04
 -0.39253407E-02  0.12679752E-02  0.16465125E-02
  0.35090423E-02 -0.13902092E-02 -0.63649147E-03
 -0.50069661E-03 -0.14204491E-02 -0.21078389E-02
 -0.18397965E-02  0.16413678E-02  0.20040799E-02
  0.20851565E-02 -0.67708774E-02 -0.11038824E-02
 -0.12761641E-03 -0.39919571E-03  0.13911260E-02
 -0.88913282E-03  0.24882627E-02 -0.23057132E-02
  0.64184057E-02 -0.25746430E-02 -0.63220061E-02
 -0.10680828E-03  0.24492245E-02 -0.10148879E-02
  0.17439086E-02 -0.24659776E-03 -0.19738466E-03
 -0.99731877E-03  0.48316140E-03 -0.19825491E-02
 -0.30899084E-02 -0.94160065E-03 -0.37849388E-02
 -0.35488261E-02 -0.41853253E-02  0.34955394E-02
 -0.21279220E-02 -0.53095198E-02  0.21404253E-02
 -0.57318323E-02 -0.29232824E-02  0.59503765E-03
  0.25428966E-02  0.18635707E-02 -0.10757303E-02
 -0.10645652E-02 -0.19883273E-02  0.38799952E-02
  0.39904723E-02  0.97714026E-04  0.54652984E-02
  0.75160902E-03  0.22265494E-02  0.45657973E-02
  0.31131498E-02  0.55779831E-02 -0.21131663E-02
 -0.39424987E-03  0.29456820E-02  0.12349573E-02
  0.33626660E-02 -0.15147777E-02 -0.44465819E-02
 -0.45900551E-02  0.19020559E-02  0.78387605E-03
 -0.27289897E-02  0.10449798E-02 -0.28701764E-02
 -0.26201078E-02 -0.13318880E-02  0.40023659E-03
 -0.54028524E-02  0.47617841E-02  0.33055257E-03
  0.49557091E-03 -0.38177292E-02 -0.24735689E-02
  0.37824306E-02  0.75301973E-03  0.52466942E-03
  0.57645243E-03  0.81635648E-03  0.25768852E-02
  0.16331054E-02 -0.56356505E-02  0.72335877E-02
 -0.69476658E-02  0.45774595E-02  0.81536501E-03
  0.41395848E-02  0.71499198E-03  0.36441237E-02
  0.17314545E-02 -0.17615914E-02  0.11936109E-02
 -0.10230891E-02 -0.25135133E-02 -0.39850219E-02
 -0.40384138E-02  0.24303610E-02 -0.15162965E-02
 -0.37154179E-02 -0.70849565E-02  0.26360439E-02
 -0.39367141E-02 -0.68959858E-03 -0.12490069E-02
 -0.40629185E-02 -0.28740740E-02  0.50385533E-02
 -0.29852522E-02  0.10907624E-02 -0.49669079E-02
  0.19389430E-02 -0.33211891E-02  0.54512998E-02
  0.21530510E-03 -0.17301955E-02  0.55460098E-02
 -0.39812194E-04  0.17268929E-02 -0.48195374E-02
  0.30583753E-02  0.91666950E-03 -0.27712457E-02
 -0.15212725E-02  0.61880422E-02 -0.92848977E-03
 -0.31816186E-02  0.17266201E-02 -0.52010501E-02
 -0.38118466E-02  0.57502534E-02  0.49630142E-02
 -0.21634485E-02  0.38187190E-02 -0.15770956E-03
 -0.16300148E-02 -0.67041680E-03 -0.42392018E-02
  0.32092587E-03  0.61979226E-02  0.49236543E-02
 -0.33153814E-02  0.32435678E-02  0.17780692E-02
 -0.23127777E-02  0.53638600E-02  0.34375258E-02
 -0.13710522E-02  0.21157294E-02 -0.92866267E-03
  0.13170518E-02 -0.52429329E-02 -0.16253090E-02
  0.40030682E-02  0.36750646E-02  0.20740125E-02
 -0.14305177E-03 -0.92759207E-03  0.15107381E-02
  0.45577684E-02 -0.45165559E-02 -0.36746848E-03
  0.50004015E-02  0.23494061E-02 -0.13394323E-02
 
           1
   1.00000000000000     
 -0.60496932E+00  0.43653497E-02  0.60967532E-02 -0.61020037E+00
  0.75741474E+00  0.74659706E+00  0.82776386E+00
  0.75917469E+00  0.75070566E+00  0.50415418E+00
  0.75329442E+00  0.75311519E+00  0.16670760E+00
  0.75171789E+00  0.23847137E+00  0.83524015E+00
  0.73143213E+00  0.24287982E+00  0.51337449E+00
  0.75723188E+00  0.25415723E+00  0.17502486E+00
  0.49966515E+00  0.49139222E+00  0.66277444E+00
  0.49931129E+00  0.51248066E+00  0.32678761E+00
  0.51074616E+00  0.50816296E+00  0.44498863E-02
  0.50745012E+00  0.99228266E+00  0.66579422E+00
  0.49999328E+00  0.99462715E+00  0.33465821E+00
  0.47795123E+00  0.67487109E-02  0.99059181E+00
  0.26284938E+00  0.73619392E+00  0.82418713E+00
  0.22920597E+00  0.76050841E+00  0.49855443E+00
  0.23518794E+00  0.73549609E+00  0.16608165E+00
  0.23206706E+00  0.24826678E+00  0.82700615E+00
  0.25338159E+00  0.24660588E+00  0.50672651E+00
  0.25535710E+00  0.28088645E+00  0.16155415E+00
  0.21895286E-02  0.48466423E+00  0.66943153E+00
  0.99970998E+00  0.48892120E+00  0.34255092E+00
  0.99329270E+00  0.50855503E+00  0.86221132E-02
  0.99377453E+00  0.37241432E-03  0.66680067E+00
  0.99158270E+00  0.96523749E-02  0.33396984E+00
  0.99205295E+00  0.16438139E-01  0.99515497E+00
  0.11326137E+00  0.91774433E+00  0.82047155E+00
  0.75446965E-01  0.89837650E+00  0.49030823E+00
  0.89208442E-01  0.89783993E+00  0.15817859E+00
  0.88822731E-01  0.40210729E+00  0.83764808E+00
  0.10100882E+00  0.39567009E+00  0.51564610E+00
  0.11080531E+00  0.42655733E+00  0.16449917E+00
  0.88962710E+00  0.87310040E-01  0.82168667E+00
  0.88339956E+00  0.91475155E-01  0.51263122E+00
  0.89822131E+00  0.97075320E-01  0.18453936E+00
  0.89289268E+00  0.58708966E+00  0.83069842E+00
  0.92036790E+00  0.60736764E+00  0.51502411E+00
  0.90880112E+00  0.60557419E+00  0.18563668E+00
  0.86038429E+00  0.83164817E+00  0.67157288E+00
  0.84496246E+00  0.84900289E+00  0.32998622E+00
  0.84555649E+00  0.85530979E+00  0.99536216E+00
  0.85661038E+00  0.32162490E+00  0.65608925E+00
  0.85200841E+00  0.34155717E+00  0.34915830E+00
  0.86866628E+00  0.32654348E+00  0.95866850E-02
  0.66226904E+00  0.64030359E+00  0.66102460E+00
  0.66457813E+00  0.65216253E+00  0.33297908E+00
  0.67484376E+00  0.64097629E+00  0.99845565E+00
  0.63720977E+00  0.16065928E+00  0.68003847E+00
  0.65488425E+00  0.14728322E+00  0.34461728E+00
  0.65943428E+00  0.15164933E+00  0.60636357E-02
  0.58998361E+00  0.90818293E+00  0.83852991E+00
  0.60320074E+00  0.90763224E+00  0.50287823E+00
  0.58990943E+00  0.89902898E+00  0.15479731E+00
  0.61137997E+00  0.39494007E+00  0.82963273E+00
  0.59911370E+00  0.40283456E+00  0.50632216E+00
  0.61082329E+00  0.42186835E+00  0.16934712E+00
  0.39706885E+00  0.11178588E+00  0.82114367E+00
  0.39551474E+00  0.81979185E-01  0.48994406E+00
  0.39036058E+00  0.10397098E+00  0.17714245E+00
  0.42634991E+00  0.60667910E+00  0.82937574E+00
  0.39692485E+00  0.59452894E+00  0.50670409E+00
  0.41171528E+00  0.60680487E+00  0.15358699E+00
  0.34271225E+00  0.83938797E+00  0.65153712E+00
  0.34014038E+00  0.84580989E+00  0.32501934E+00
  0.33920707E+00  0.84540378E+00  0.98609989E+00
  0.34525139E+00  0.35912461E+00  0.67609048E+00
  0.35025689E+00  0.36680729E+00  0.33060222E+00
  0.36637191E+00  0.35048349E+00  0.98483601E+00
  0.16507139E+00  0.63463226E+00  0.67018358E+00
  0.17336544E+00  0.63364590E+00  0.33591109E+00
  0.15210122E+00  0.64426160E+00  0.98533100E+00
  0.14719460E+00  0.14661835E+00  0.66050342E+00
  0.13505477E+00  0.17523084E+00  0.32978511E+00
  0.13668359E+00  0.17496875E+00  0.25889357E-02
  0.00000000E+00  0.00000000E+00  0.00000000E+00
  0.00000000E+00  0.00000000E+00  0.00000000E+00
  0.00000000E+00  0.00000000E+00  0.00000000E+00
  0.00000000E+00  0.00000000E+00  0.00000000E+00
  0.00000000E+00  0.00000000E+00  0.00000000E+00
  0.00000000E+00  0.00000000E+00  0.00000000E+00
  0.00000000E+00  0.00000000E+00  0.00000000E+00
  0.00000000E+00  0.00000000E+00  0.00000000E+00
  0.00000000E+00  0.00000000E+00  0.00000000E+00
  0.00000000E+00  0.00000000E+00  0.00000000E+00
  0.00000000E+00  0.00000000E+00  0.00000000E+00
  0.00000000E+00  0.00000000E+00  0.00000000E+00
  0.00000000E+00  0.00000000E+00  0.00000000E+00
  0.00000000E+00  0.00000000E+00  0.00000000E+00
  0.00000000E+00  0.00000000E+00  0.00000000E+00
  0.00000000E+00  0.00000000E+00  0.00000000E+00
  0.00000000E+00  0.00000000E+00  0.00000000E+00
  0.00000000E+00  0.00000000E+00  0.00000000E+00
  0.00000000E+00  0.00000000E+00  0.00000000E+00
  0.00000000E+00  0.00000000E+00  0.00000000E+00
  0.00000000E+00  0.00000000E+00  0.00000000E+00
  0.00000000E+00  0.00000000E+00  0.00000000E+00
  0.00000000E+00  0.00000000E+00  0.00000000E+00
  0.00000000E+00  0.00000000E+00  0.00000000E+00
  0.00000000E+00  0.00000000E+00  0.00000000E+00
  0.00000000E+00  0.00000000E+00  0.00000000E+00
  0.00000000E+00  0.00000000E+00  0.00000000E+00
  0.00000000E+00  0.00000000E+00  0.00000000E+00
  0.00000000E+00  0.00000000E+00  0.00000000E+00
  0.00000000E+00  0.00000000E+00  0.00000000E+00
  0.00000000E+00  0.00000000E+00  0.00000000E+00
  0.00000000E+00  0.00000000E+00  0.00000000E+00
  0.00000000E+00  0.00000000E+00  0.00000000E+00
  0.00000000E+00  0.00000000E+00  0.00000000E+00
  0.00000000E+00  0.00000000E+00  0.00000000E+00
  0.00000000E+00  0.00000000E+00  0.00000000E+00
  0.00000000E+00  0.00000000E+00  0.00000000E+00
  0.00000000E+00  0.00000000E+00  0.00000000E+00
  0.00000000E+00  0.00000000E+00  0.00000000E+00
  0.00000000E+00  0.00000000E+00  0.00000000E+00
  0.00000000E+00  0.00000000E+00  0.00000000E+00
  0.00000000E+00  0.00000000E+00  0.00000000E+00
  0.00000000E+00  0.00000000E+00  0.00000000E+00
  0.00000000E+00  0.00000000E+00  0.00000000E+00
  0.00000000E+00  0.00000000E+00  0.00000000E+00
  0.00000000E+00  0.00000000E+00  0.00000000E+00
  0.00000000E+00  0.00000000E+00  0.00000000E+00
  0.00000000E+00  0.00000000E+00  0.00000000E+00
  0.00000000E+00  0.00000000E+00  0.00000000E+00
  0.00000000E+00  0.00000000E+00  0.00000000E+00
  0.00000000E+00  0.00000000E+00  0.00000000E+00
  0.00000000E+00  0.00000000E+00  0.00000000E+00
  0.00000000E+00  0.00000000E+00  0.00000000E+00
  0.00000000E+00  0.00000000E+00  0.00000000E+00
  0.00000000E+00  0.00000000E+00  0.00000000E+00
  0.00000000E+00  0.00000000E+00  0.00000000E+00
  0.00000000E+00  0.00000000E+00  0.00000000E+00
  0.00000000E+00  0.00000000E+00  0.00000000E+00
  0.00000000E+00  0.00000000E+00  0.00000000E+00
  0.00000000E+00  0.00000000E+00  0.00000000E+00
  0.00000000E+00  0.00000000E+00  0.00000000E+00
  0.00000000E+00  0.00000000E+00  0.00000000E+00
  0.00000000E+00  0.00000000E+00  0.00000000E+00
  0.00000000E+00  0.00000000E+00  0.00000000E+00
  0.00000000E+00  0.00000000E+00  0.00000000E+00
  0.00000000E+00  0.00000000E+00  0.00000000E+00
  0.00000000E+00  0.00000000E+00  0.00000000E+00
  0.00000000E+00  0.00000000E+00  0.00000000E+00
  0.00000000E+00  0.00000000E+00  0.00000000E+00
  0.00000000E+00  0.00000000E+00  0.00000000E+00
  0.00000000E+00  0.00000000E+00  0.00000000E+00
  0.00000000E+00  0.00000000E+00  0.00000000E+00
  0.00000000E+00  0.00000000E+00  0.00000000E+00
  0.00000000E+00  0.00000000E+00  0.00000000E+00
  0.00000000E+00  0.00000000E+00  0.00000000E+00
  0.00000000E+00  0.00000000E+00  0.00000000E+00
  0.00000000E+00  0.00000000E+00  0.00000000E+00
  0.00000000E+00  0.00000000E+00  0.00000000E+00
  0.00000000E+00  0.00000000E+00  0.00000000E+00
  0.00000000E+00  0.00000000E+00  0.00000000E+00
  0.00000000E+00  0.00000000E+00  0.00000000E+00
  0.00000000E+00  0.00000000E+00  0.00000000E+00
  0.00000000E+00  0.00000000E+00  0.00000000E+00
  0.00000000E+00  0.00000000E+00  0.00000000E+00
  0.00000000E+00  0.00000000E+00  0.00000000E+00
  0.00000000E+00  0.00000000E+00  0.00000000E+00
  0.00000000E+00  0.00000000E+00  0.00000000E+00
  0.00000000E+00  0.00000000E+00  0.00000000E+00
  0.00000000E+00  0.00000000E+00  0.00000000E+00
  0.00000000E+00  0.00000000E+00  0.00000000E+00
  0.00000000E+00  0.00000000E+00  0.00000000E+00
  0.00000000E+00  0.00000000E+00  0.00000000E+00
  0.00000000E+00  0.00000000E+00  0.00000000E+00
  0.00000000E+00  0.00000000E+00  0.00000000E+00
  0.00000000E+00  0.00000000E+00  0.00000000E+00
  0.00000000E+00  0.00000000E+00  0.00000000E+00
  0.00000000E+00  0.00000000E+00  0.00000000E+00
  0.00000000E+00  0.00000000E+00  0.00000000E+00
  0.00000000E+00  0.00000000E+00  0.00000000E+00
  0.00000000E+00  0.00000000E+00  0.00000000E+00
  0.00000000E+00  0.00000000E+00  0.00000000E+00
  0.00000000E+00  0.00000000E+00  0.00000000E+00
  0.00000000E+00  0.00000000E+00  0.00000000E+00
  0.00000000E+00  0.00000000E+00  0.00000000E+00
  0.00000000E+00  0.00000000E+00  0.00000000E+00
  0.00000000E+00  0.00000000E+00  0.00000000E+00
  0.00000000E+00  0.00000000E+00  0.00000000E+00
  0.00000000E+00  0.00000000E+00  0.00000000E+00
  0.00000000E+00  0.00000000E+00  0.00000000E+00
  0.00000000E+00  0.00000000E+00  0.00000000E+00
  0.00000000E+00  0.00000000E+00  0.00000000E+00
  0.00000000E+00  0.00000000E+00  0.00000000E+00
  0.00000000E+00  0.00000000E+00  0.00000000E+00
  0.00000000E+00  0.00000000E+00  0.00000000E+00
  0.00000000E+00  0.00000000E+00  0.00000000E+00
  0.00000000E+00  0.00000000E+00  0.00000000E+00
  0.00000000E+00  0.00000000E+00  0.00000000E+00
  0.00000000E+00  0.00000000E+00  0.00000000E+00
  0.00000000E+00  0.00000000E+00  0.00000000E+00
  0.00000000E+00  0.00000000E+00  0.00000000E+00
  0.00000000E+00  0.00000000E+00  0.00000000E+00
  0.00000000E+00  0.00000000E+00  0.00000000E+00
  0.00000000E+00  0.00000000E+00  0.00000000E+00
  0.00000000E+00  0.00000000E+00  0.00000000E+00
  0.00000000E+00  0.00000000E+00  0.00000000E+00
  0.00000000E+00  0.00000000E+00  0.00000000E+00
  0.00000000E+00  0.00000000E+00  0.00000000E+00
  0.00000000E+00  0.00000000E+00  0.00000000E+00
  0.00000000E+00  0.00000000E+00  0.00000000E+00
  0.00000000E+00  0.00000000E+00  0.00000000E+00
  0.00000000E+00  0.00000000E+00  0.00000000E+00
  0.00000000E+00  0.00000000E+00  0.00000000E+00
  0.00000000E+00  0.00000000E+00  0.00000000E+00
  0.00000000E+00  0.00000000E+00  0.00000000E+00
  0.00000000E+00  0.00000000E+00  0.00000000E+00
  0.00000000E+00  0.00000000E+00  0.00000000E+00
  0.00000000E+00  0.00000000E+00  0.00000000E+00
  0.00000000E+00  0.00000000E+00  0.00000000E+00
  0.00000000E+00  0.00000000E+00  0.00000000E+00
  0.00000000E+00  0.00000000E+00  0.00000000E+00
  0.00000000E+00  0.00000000E+00  0.00000000E+00
  0.00000000E+00  0.00000000E+00  0.00000000E+00
  0.00000000E+00  0.00000000E+00  0.00000000E+00
  0.00000000E+00  0.00000000E+00  0.00000000E+00
