NaFNPT                                  
   1.00000000000000     
     9.4069619572559304    0.0031333384790655    0.0196151152233961
    -0.0000000000067388    9.4069678773824030    0.0233095823872160
    -0.0000000000027863   -0.0000000000036032    9.4069677853730909
   F    Na
    32    32
Direct
  0.2579085853102495  0.9906768553673574  0.0087694174896421
  0.2330991415743739  0.0063834093090286  0.5097289963149467
  0.2451094255682625  0.5106163636381966  0.9924088275419414
  0.2405275438038066  0.4844808597884893  0.4824812160159057
  0.2537724171781442  0.2352703638698896  0.2442484215446785
  0.2371699831089569  0.2643465715224441  0.7637378466231441
  0.2558206788095322  0.7531576833953701  0.2462583694038392
  0.2357817933773615  0.7658442208622692  0.7436302062582374
  1.0029403776776471  0.2595719220554918  0.0129766536188009
  0.0041947704506619  0.2470605497310625  0.4985137266479440
  0.0111756926691595  1.0060717860251878  0.2531323067711354
 -0.0184312824198711  0.9966185391343485  0.7508361560637593
  1.0019848260154751  0.5173093555689436  0.2285169019994445
  0.9998786384760953  0.4866819117889080  0.7350569795828027
  0.9980980594843913  0.7485358430061569  0.9956264091364482
  1.0076737043749489  0.7256155439561024  0.4780790016109089
  0.4975931899978655  0.2619143691250729  0.0054240533461198
  0.4905697105050787  0.2585301228157700  0.4930029906033980
  0.4929438958335180  0.9872939002146097  0.2640572507192901
  0.4923276857642623 -0.0048161674653748  0.7470675765261905
  0.5066644372049337  0.5115046637875454  0.2576652481070139
  0.4995587572034235  0.5031805209661350  0.7594032269705054
  0.5041389074833881  0.7462486421199866  0.9944151983258047
  0.5072453107336300  0.7414058892030314  0.5082496420749395
  0.7467272085985585  1.0044943995492075  0.9814750288007884
  0.7515663336392584 -0.0110340972421926  0.5037128628807885
  0.7582460052764146  0.5000077774619488 -0.0000982913557829
  0.7567175905342678  0.4927698241830902  0.4785982910885879
  0.7440826925812989  0.2434354294768320  0.2325607706169401
  0.7570401353312411  0.2513696718268691  0.7338503692569114
  0.7512537005554498  0.7641562691352287  0.2497453341339287
  0.7410491505401059  0.7513640220906036  0.7574734417092271
  0.2572158019142221  0.2584330413464320 -0.0042164545528707
  0.2608991675957786  0.2364292165714984  0.4971552530091929
  0.2580548873411733  1.0000472708552328  0.2607685564444635
  0.2336031298873214  0.0088084460396908  0.7618166925125038
  0.2430525042569456  0.4949870080283144  0.2526995421782937
  0.2513621524861221  0.4979984012526568  0.7436455135282910
  0.2611958258483730  0.7402232556053886  1.0029866671443708
  0.2435584694155761  0.7497228162223442  0.5117513645462435
  0.0110125998053445  0.0007256859251352  1.0000629241289600
 -0.0037623093094239  1.0076196795724699  0.4882732669635191
  0.9938702780696327  0.5200468907496130  0.0072033189917689
  1.0014217140195345  0.4936277610750259  0.4995054857585809
  1.0034631432534087  0.2439455651990055  0.2438459146224704
  0.0077607998372428  0.2607721007527970  0.7692042543863478
  1.0010877432817398  0.7490258769823460  0.2524948033881621
 -0.0071279316666141  0.7589294849796082  0.7434106262217925
  0.4895268718003618  0.0158754296069739  0.0085394698008218
  0.4842046468842212  0.9799253278454381  0.5091782937959826
  0.5087204297274022  0.5112157699693837 -0.0041762925714227
  0.4934550013806763  0.4945774429488703  0.5056774823356636
  0.5077610300334499  0.2756041736007190  0.2521076095128238
  0.5099168524454165  0.2414032259787049  0.7528077833810018
  0.4952925332747055  0.7359438211079031  0.2479210841171372
  0.5065692279698252  0.7442686591345281  0.7575734438928715
  0.7327547176149058  0.2425427543886520 -0.0083219444724882
  0.7616187911919859  0.2453193615547491  0.4803116583262931
  0.7590860844297478 -0.0015951711238049  0.2388891227431766
  0.7429398347248761  0.0081714057525518  0.7431884642426039
  0.7714085024167128  0.4864569562980816  0.2375253550407714
  0.7645722458401031  0.4974600334516135  0.7476044167776917
  0.7471844625333743  0.7565497099901483  1.0063466777813663
  0.7564366195792225  0.7410756426611853  0.4864328241146935
 
  0.37054784E-02 -0.39966341E-02  0.43010058E-02
  0.69525660E-03 -0.10318993E-02 -0.21816042E-02
 -0.50613895E-03  0.53874210E-03 -0.48827950E-03
  0.69491330E-02  0.16579917E-02  0.48378572E-03
 -0.37045265E-02  0.44017991E-02 -0.35036634E-03
  0.26458714E-02  0.58426593E-02  0.18693916E-02
 -0.12209563E-02 -0.10261038E-02  0.94284465E-03
  0.67521992E-03 -0.30150394E-04 -0.16239808E-02
  0.26392845E-02 -0.20763211E-02  0.22735081E-03
  0.42206198E-02 -0.40931873E-02 -0.13085136E-02
 -0.18276924E-02 -0.68203018E-03 -0.77173387E-03
 -0.80131875E-04  0.25029799E-02 -0.36934917E-02
 -0.38236176E-02  0.18279944E-02  0.33682417E-02
 -0.25906562E-02  0.23637830E-02  0.38836074E-02
 -0.17555298E-02  0.14638819E-02 -0.36948750E-02
  0.30672682E-02 -0.40974185E-03  0.99986281E-03
 -0.21339622E-02  0.86403087E-03 -0.10252018E-02
 -0.11133611E-02 -0.26309164E-02  0.24179664E-03
 -0.15521050E-02 -0.26775821E-02  0.27402609E-02
 -0.80754361E-02  0.37845659E-02  0.40049857E-02
 -0.22324736E-02 -0.25869307E-02  0.12072535E-02
 -0.25803914E-02 -0.40759718E-02  0.51697670E-02
 -0.60811204E-02  0.29945197E-02 -0.54318135E-02
 -0.87057942E-03 -0.20213989E-02  0.26508257E-02
 -0.41911641E-03  0.15501461E-02 -0.22938334E-02
 -0.37040051E-02  0.88366950E-03  0.29957516E-02
  0.10223038E-02 -0.38316202E-02  0.15120669E-02
 -0.18203412E-02 -0.57748260E-02  0.35295449E-02
 -0.78778083E-02  0.45721508E-02 -0.22511695E-02
 -0.15536320E-02  0.62556794E-03  0.11764775E-02
  0.36136492E-02  0.58407494E-02  0.17040118E-04
  0.45351551E-02  0.47136869E-02 -0.85362884E-03
  0.18552308E-02  0.13524718E-02 -0.53058399E-02
  0.67170017E-03  0.20681348E-02  0.16095042E-03
  0.33576329E-02  0.54711154E-04  0.10682556E-02
  0.16291959E-02 -0.43776163E-02  0.10997156E-02
 -0.24169178E-02 -0.25475455E-02  0.16968053E-03
 -0.11408613E-03  0.40490331E-02  0.15251783E-02
  0.18142451E-03 -0.10624734E-02 -0.68153644E-03
 -0.32377589E-02  0.37406512E-02 -0.11222190E-02
 -0.34152948E-02 -0.21108835E-02  0.73536061E-03
  0.66153430E-02  0.63829094E-02 -0.38893986E-02
 -0.88345997E-03 -0.16465767E-03 -0.15578836E-02
  0.77086394E-02 -0.68499270E-02 -0.35282731E-02
  0.45817037E-04  0.85859294E-03  0.28216973E-02
 -0.29086975E-02  0.72864259E-03  0.30906623E-02
  0.45390299E-02 -0.13824150E-02 -0.53776337E-02
  0.66986648E-02 -0.41635368E-02  0.39467715E-03
 -0.35206147E-02 -0.11983032E-02 -0.79629648E-03
  0.17576265E-02  0.38752010E-02  0.32472991E-02
  0.93046168E-03 -0.83023012E-03  0.32274688E-02
  0.26749298E-02 -0.52169183E-03 -0.18212677E-02
 -0.24620403E-02 -0.21643521E-02 -0.29901301E-02
  0.40052342E-02 -0.29038358E-02  0.31543639E-02
 -0.11202850E-02 -0.31698374E-02 -0.38477623E-02
  0.48384307E-02 -0.34343485E-02 -0.84938784E-03
  0.28122086E-02  0.37339261E-02 -0.15165230E-02
 -0.14656439E-02 -0.21112217E-02  0.54707325E-02
  0.34955786E-02 -0.55589334E-02  0.31908731E-03
  0.11678966E-02  0.27630805E-02 -0.14738093E-02
 -0.15168785E-02  0.16483892E-02 -0.92392496E-02
 -0.81804249E-02  0.28001061E-02 -0.29507125E-02
  0.38733795E-02 -0.53507731E-02  0.27324243E-02
 -0.12907977E-02  0.43703629E-02 -0.84916242E-03
 
           1
   1.00000000000000     
 -0.39120288E+00 -0.67932549E-02 -0.52359786E-02 -0.38518826E+00
  0.25830249E+00  0.99025187E+00  0.92268641E-02
  0.23317305E+00  0.62736895E-02  0.50949720E+00
  0.24505562E+00  0.51067365E+00  0.99235689E+00
  0.24126627E+00  0.48465687E+00  0.48253067E+00
  0.25337861E+00  0.23573842E+00  0.24421084E+00
  0.23745125E+00  0.26496758E+00  0.76393445E+00
  0.25569089E+00  0.75304865E+00  0.24635914E+00
  0.23585357E+00  0.76584099E+00  0.74345743E+00
  0.32209448E-02  0.25935111E+00  0.13000784E-01
  0.46434403E-02  0.24662528E+00  0.49837477E+00
  0.10981401E-01  0.59993481E-02  0.25305085E+00
  0.98156020E+00  0.99688462E+00  0.75044288E+00
  0.15783592E-02  0.51750381E+00  0.22887533E+00
  0.99960324E+00  0.48693328E+00  0.73546977E+00
  0.99791144E+00  0.74869152E+00  0.99523363E+00
  0.79997680E-02  0.72557188E+00  0.47818472E+00
  0.49736634E+00  0.26200629E+00  0.53153153E-02
  0.49045136E+00  0.25825048E+00  0.49302963E+00
  0.49277890E+00  0.98700932E+00  0.26434960E+00
  0.49146923E+00  0.99558643E+00  0.74749412E+00
  0.50642712E+00  0.51122974E+00  0.25779476E+00
  0.49928445E+00  0.50274732E+00  0.75995444E+00
  0.50349246E+00  0.74656719E+00  0.99383833E+00
  0.50715276E+00  0.74119104E+00  0.50853216E+00
  0.74668265E+00  0.46592014E-02  0.98123087E+00
  0.75117258E+00  0.98905997E+00  0.50403191E+00
  0.75835468E+00  0.49960042E+00  0.63230453E-04
  0.75652408E+00  0.49215600E+00  0.47897542E+00
  0.74324525E+00  0.24392175E+00  0.23232200E+00
  0.75687498E+00  0.25143623E+00  0.73397561E+00
  0.75163785E+00  0.76477704E+00  0.24974481E+00
  0.74153126E+00  0.75186495E+00  0.75738045E+00
  0.25741302E+00  0.25857675E+00  0.99521875E+00
  0.26097057E+00  0.23664904E+00  0.49717167E+00
  0.25841182E+00  0.52967991E-04  0.26088136E+00
  0.23377632E+00  0.83430294E-02  0.76193439E+00
  0.24279558E+00  0.49471628E+00  0.25271879E+00
  0.25135002E+00  0.49842883E+00  0.74380661E+00
  0.26121511E+00  0.74011030E+00  0.29144566E-02
  0.24321428E+00  0.75012058E+00  0.51163180E+00
  0.10649539E-01  0.50141112E-03  0.14240881E-03
  0.99694093E+00  0.82979753E-02  0.48785666E+00
  0.99377636E+00  0.52002942E+00  0.70379486E-02
  0.22411751E-02  0.49289931E+00  0.49913051E+00
  0.34680138E-02  0.24403684E+00  0.24414564E+00
  0.74515929E-02  0.26084966E+00  0.76953326E+00
  0.15702614E-02  0.74887876E+00  0.25192250E+00
  0.99358416E+00  0.75848665E+00  0.74345219E+00
  0.48915262E+00  0.15748170E-01  0.84559159E-02
  0.48439149E+00  0.98033722E+00  0.50952209E+00
  0.50881934E+00  0.51112748E+00  0.99616681E+00
  0.49373936E+00  0.49452189E+00  0.50548342E+00
  0.50749930E+00  0.27537418E+00  0.25179086E+00
  0.51034263E+00  0.24109439E+00  0.75314298E+00
  0.49517344E+00  0.73560689E+00  0.24751313E+00
  0.50708357E+00  0.74390340E+00  0.75748298E+00
  0.73305367E+00  0.24293959E+00  0.99151524E+00
  0.76146299E+00  0.24509498E+00  0.48089410E+00
  0.75945768E+00  0.99781377E+00  0.23892373E+00
  0.74306399E+00  0.84650914E-02  0.74303081E+00
  0.77124725E+00  0.48663224E+00  0.23654309E+00
  0.76370263E+00  0.49775799E+00  0.74729182E+00
  0.74759622E+00  0.75598076E+00  0.66376971E-02
  0.75629940E+00  0.74154028E+00  0.48634169E+00
  0.00000000E+00  0.00000000E+00  0.00000000E+00
  0.00000000E+00  0.00000000E+00  0.00000000E+00
  0.00000000E+00  0.00000000E+00  0.00000000E+00
  0.00000000E+00  0.00000000E+00  0.00000000E+00
  0.00000000E+00  0.00000000E+00  0.00000000E+00
  0.00000000E+00  0.00000000E+00  0.00000000E+00
  0.00000000E+00  0.00000000E+00  0.00000000E+00
  0.00000000E+00  0.00000000E+00  0.00000000E+00
  0.00000000E+00  0.00000000E+00  0.00000000E+00
  0.00000000E+00  0.00000000E+00  0.00000000E+00
  0.00000000E+00  0.00000000E+00  0.00000000E+00
  0.00000000E+00  0.00000000E+00  0.00000000E+00
  0.00000000E+00  0.00000000E+00  0.00000000E+00
  0.00000000E+00  0.00000000E+00  0.00000000E+00
  0.00000000E+00  0.00000000E+00  0.00000000E+00
  0.00000000E+00  0.00000000E+00  0.00000000E+00
  0.00000000E+00  0.00000000E+00  0.00000000E+00
  0.00000000E+00  0.00000000E+00  0.00000000E+00
  0.00000000E+00  0.00000000E+00  0.00000000E+00
  0.00000000E+00  0.00000000E+00  0.00000000E+00
  0.00000000E+00  0.00000000E+00  0.00000000E+00
  0.00000000E+00  0.00000000E+00  0.00000000E+00
  0.00000000E+00  0.00000000E+00  0.00000000E+00
  0.00000000E+00  0.00000000E+00  0.00000000E+00
  0.00000000E+00  0.00000000E+00  0.00000000E+00
  0.00000000E+00  0.00000000E+00  0.00000000E+00
  0.00000000E+00  0.00000000E+00  0.00000000E+00
  0.00000000E+00  0.00000000E+00  0.00000000E+00
  0.00000000E+00  0.00000000E+00  0.00000000E+00
  0.00000000E+00  0.00000000E+00  0.00000000E+00
  0.00000000E+00  0.00000000E+00  0.00000000E+00
  0.00000000E+00  0.00000000E+00  0.00000000E+00
  0.00000000E+00  0.00000000E+00  0.00000000E+00
  0.00000000E+00  0.00000000E+00  0.00000000E+00
  0.00000000E+00  0.00000000E+00  0.00000000E+00
  0.00000000E+00  0.00000000E+00  0.00000000E+00
  0.00000000E+00  0.00000000E+00  0.00000000E+00
  0.00000000E+00  0.00000000E+00  0.00000000E+00
  0.00000000E+00  0.00000000E+00  0.00000000E+00
  0.00000000E+00  0.00000000E+00  0.00000000E+00
  0.00000000E+00  0.00000000E+00  0.00000000E+00
  0.00000000E+00  0.00000000E+00  0.00000000E+00
  0.00000000E+00  0.00000000E+00  0.00000000E+00
  0.00000000E+00  0.00000000E+00  0.00000000E+00
  0.00000000E+00  0.00000000E+00  0.00000000E+00
  0.00000000E+00  0.00000000E+00  0.00000000E+00
  0.00000000E+00  0.00000000E+00  0.00000000E+00
  0.00000000E+00  0.00000000E+00  0.00000000E+00
  0.00000000E+00  0.00000000E+00  0.00000000E+00
  0.00000000E+00  0.00000000E+00  0.00000000E+00
  0.00000000E+00  0.00000000E+00  0.00000000E+00
  0.00000000E+00  0.00000000E+00  0.00000000E+00
  0.00000000E+00  0.00000000E+00  0.00000000E+00
  0.00000000E+00  0.00000000E+00  0.00000000E+00
  0.00000000E+00  0.00000000E+00  0.00000000E+00
  0.00000000E+00  0.00000000E+00  0.00000000E+00
  0.00000000E+00  0.00000000E+00  0.00000000E+00
  0.00000000E+00  0.00000000E+00  0.00000000E+00
  0.00000000E+00  0.00000000E+00  0.00000000E+00
  0.00000000E+00  0.00000000E+00  0.00000000E+00
  0.00000000E+00  0.00000000E+00  0.00000000E+00
  0.00000000E+00  0.00000000E+00  0.00000000E+00
  0.00000000E+00  0.00000000E+00  0.00000000E+00
  0.00000000E+00  0.00000000E+00  0.00000000E+00
  0.00000000E+00  0.00000000E+00  0.00000000E+00
  0.00000000E+00  0.00000000E+00  0.00000000E+00
  0.00000000E+00  0.00000000E+00  0.00000000E+00
  0.00000000E+00  0.00000000E+00  0.00000000E+00
  0.00000000E+00  0.00000000E+00  0.00000000E+00
  0.00000000E+00  0.00000000E+00  0.00000000E+00
  0.00000000E+00  0.00000000E+00  0.00000000E+00
  0.00000000E+00  0.00000000E+00  0.00000000E+00
  0.00000000E+00  0.00000000E+00  0.00000000E+00
  0.00000000E+00  0.00000000E+00  0.00000000E+00
  0.00000000E+00  0.00000000E+00  0.00000000E+00
  0.00000000E+00  0.00000000E+00  0.00000000E+00
  0.00000000E+00  0.00000000E+00  0.00000000E+00
  0.00000000E+00  0.00000000E+00  0.00000000E+00
  0.00000000E+00  0.00000000E+00  0.00000000E+00
  0.00000000E+00  0.00000000E+00  0.00000000E+00
  0.00000000E+00  0.00000000E+00  0.00000000E+00
  0.00000000E+00  0.00000000E+00  0.00000000E+00
  0.00000000E+00  0.00000000E+00  0.00000000E+00
  0.00000000E+00  0.00000000E+00  0.00000000E+00
  0.00000000E+00  0.00000000E+00  0.00000000E+00
  0.00000000E+00  0.00000000E+00  0.00000000E+00
  0.00000000E+00  0.00000000E+00  0.00000000E+00
  0.00000000E+00  0.00000000E+00  0.00000000E+00
  0.00000000E+00  0.00000000E+00  0.00000000E+00
  0.00000000E+00  0.00000000E+00  0.00000000E+00
  0.00000000E+00  0.00000000E+00  0.00000000E+00
  0.00000000E+00  0.00000000E+00  0.00000000E+00
  0.00000000E+00  0.00000000E+00  0.00000000E+00
  0.00000000E+00  0.00000000E+00  0.00000000E+00
  0.00000000E+00  0.00000000E+00  0.00000000E+00
  0.00000000E+00  0.00000000E+00  0.00000000E+00
  0.00000000E+00  0.00000000E+00  0.00000000E+00
  0.00000000E+00  0.00000000E+00  0.00000000E+00
  0.00000000E+00  0.00000000E+00  0.00000000E+00
  0.00000000E+00  0.00000000E+00  0.00000000E+00
  0.00000000E+00  0.00000000E+00  0.00000000E+00
  0.00000000E+00  0.00000000E+00  0.00000000E+00
  0.00000000E+00  0.00000000E+00  0.00000000E+00
  0.00000000E+00  0.00000000E+00  0.00000000E+00
  0.00000000E+00  0.00000000E+00  0.00000000E+00
  0.00000000E+00  0.00000000E+00  0.00000000E+00
  0.00000000E+00  0.00000000E+00  0.00000000E+00
  0.00000000E+00  0.00000000E+00  0.00000000E+00
  0.00000000E+00  0.00000000E+00  0.00000000E+00
  0.00000000E+00  0.00000000E+00  0.00000000E+00
  0.00000000E+00  0.00000000E+00  0.00000000E+00
  0.00000000E+00  0.00000000E+00  0.00000000E+00
  0.00000000E+00  0.00000000E+00  0.00000000E+00
  0.00000000E+00  0.00000000E+00  0.00000000E+00
  0.00000000E+00  0.00000000E+00  0.00000000E+00
  0.00000000E+00  0.00000000E+00  0.00000000E+00
  0.00000000E+00  0.00000000E+00  0.00000000E+00
  0.00000000E+00  0.00000000E+00  0.00000000E+00
  0.00000000E+00  0.00000000E+00  0.00000000E+00
  0.00000000E+00  0.00000000E+00  0.00000000E+00
  0.00000000E+00  0.00000000E+00  0.00000000E+00
  0.00000000E+00  0.00000000E+00  0.00000000E+00
  0.00000000E+00  0.00000000E+00  0.00000000E+00
  0.00000000E+00  0.00000000E+00  0.00000000E+00
  0.00000000E+00  0.00000000E+00  0.00000000E+00
  0.00000000E+00  0.00000000E+00  0.00000000E+00
  0.00000000E+00  0.00000000E+00  0.00000000E+00
  0.00000000E+00  0.00000000E+00  0.00000000E+00
