NaFNPT                                  
   1.00000000000000     
     9.4069619572559304    0.0031333384790655    0.0196151152233961
    -0.0000000000067388    9.4069678773824030    0.0233095823872160
    -0.0000000000027863   -0.0000000000036032    9.4069677853730909
   F    Na
    32    32
Direct
  0.2622402689479680  0.9799292466700601  0.0001786683568593
  0.2584122534716718  0.0062652079424719  0.4833302091374337
  0.2328104948019085  0.5065820253896970  0.9988936289624242
  0.2469446705972078  0.5085708003671916  0.4966638680419689
  0.2531675287145609  0.2272453459418473  0.2334855897798214
  0.2622066951961708  0.2452883304398214  0.7666483926858750
  0.2389301011041904  0.7498576510042627  0.2453696819334143
  0.2378652115035643  0.7510767529782425  0.7505502751519566
 -0.0028222124038363  0.2603581800218340  0.0066782601288256
  0.0093967852918295  0.2623750617919841  0.4924000434941735
  0.9786529189244890  0.9928898068214328  0.2618396538469597
  1.0161028876815077 -0.0019334409270194  0.7391431673793729
 -0.0125241735964657  0.4981726953726052  0.2768976668430449
  0.9950532308217068  0.4923095561194462  0.7508050652360903
 -0.0031188541201541  0.7514500044438425  0.9980096467282795
  1.0077375672016999  0.7604550167163651  0.5105552049476751
  0.5077665651175836  0.2362630682105759  0.0004796129957606
  0.4903705210566206  0.2324926598698133  0.5010491327735774
  0.5022167852308080 -0.0057927804036668  0.2567716589193629
  0.4998345980638664  0.0118791988477699  0.7462130227696286
  0.4958655516086747  0.5140308118218644  0.2626548559428611
  0.5067210439085532  0.5190760407027945  0.7414432518112379
  0.5012208362751394  0.7393520375547042  1.0015112429790163
  0.5149047567022709  0.7755232696432479  0.4978820991405381
  0.7495888453914422 -0.0175825002962332  0.9775265563470387
  0.7609518065079708  0.0172129083757993  0.5002795392382888
  0.7532085921863884  0.5099324266989356  0.0095660446856048
  0.7425541801457037  0.4813443407277965  0.5093890669855183
  0.7657934141843873  0.2409527313925973  0.2303759034208631
  0.7518961288900500  0.2526354342459123  0.7606195667614212
  0.7501836901250009  0.7520118335443705  0.2491538747846363
  0.7547911478369554  0.7541910222076144  0.7392299125209880
  0.2317175474424424  0.2397336761077651  0.0059264575101349
  0.2497513048494523  0.2478441456763105  0.4898096833242545
  0.2584052846802269  1.0030949905955526  0.2449564951455160
  0.2794019624287076  0.0026986890084590  0.7252090898185447
  0.2356902998519370  0.5118197252901212  0.2410971530366902
  0.2497983213919613  0.5038125779612235  0.7524369847587614
  0.2512505073298090  0.7342402960531531 -0.0234435792666821
  0.2475894258896619  0.7540727980284485  0.5233876696310594
 -0.0021846730933046  0.9834667916286157 -0.0138100113794293
  0.9998958876034079  0.0029434937503303  0.5107342480995301
 -0.0167403375211517  0.5127657057390096  1.0001068978697363
  0.9877806964054383  0.5031330778608447  0.5040306515828143
  0.0020660790031731  0.2412602340130536  0.2456554089277169
  0.0077471880996278  0.2512452390681547  0.7536523226193839
  0.9855347744118707  0.7628281418952008  0.2560144508556795
  1.0035697575610651  0.7671522709538885  0.7497607256324758
  0.5093903537826359  0.0035098474341494  0.0114129713896967
  0.4946289305814831  0.9984364416559799  0.4839698000161803
  0.5004364349720297  0.4954559811511526  0.9729369537483338
  0.4881633862614742  0.4944567561206543  0.4870394086951219
  0.4958741087573086  0.2481857084459287  0.2514861188372178
  0.5154290612827234  0.2470881481131000  0.7443621479712359
  0.4858551078793236  0.7477257123578820  0.2345548061540345
  0.5092028696735004  0.7573786517478553  0.7367238323928907
  0.7567231943070380  0.2323908220491509 -0.0085682919396500
  0.7524238613457529  0.2488443295804923  0.4998164304712461
  0.7463618556344191  0.0025430674902594  0.2518556107182449
  0.7681433574431643  1.0055727178646485  0.7455412018115171
  0.7416289306702498  0.4962307709153227  0.2641336143523270
  0.7532395933037911  0.4828208437223322  0.7563214850536982
  0.7297839378184732  0.7415360744978301 -0.0143997720942561
  0.7515099470052375  0.7665880181543636  0.5066535400559139
 
 -0.26418807E-02 -0.40648133E-02 -0.88405960E-02
  0.36076140E-02 -0.66333056E-02  0.30533618E-02
 -0.14573003E-02 -0.47528746E-04  0.54845245E-02
 -0.33116488E-02 -0.74226381E-03 -0.34084579E-02
 -0.12939290E-02 -0.93352823E-03 -0.77364040E-02
 -0.34559111E-02  0.31347184E-02  0.32828736E-02
 -0.32953353E-02  0.37710533E-02  0.14203700E-02
 -0.28264195E-02  0.11726634E-02  0.31907919E-02
 -0.19079908E-02  0.10894222E-02  0.57336846E-02
  0.17728415E-02 -0.20550552E-02  0.28333236E-02
 -0.15937269E-02  0.86074647E-03  0.28666718E-02
 -0.19924080E-02 -0.10816731E-01 -0.81546983E-03
  0.50175812E-02  0.59990961E-03  0.56057953E-03
 -0.65408772E-02 -0.37854055E-02 -0.23047626E-02
  0.22774707E-02 -0.27153343E-03 -0.32961071E-02
  0.14305524E-02  0.28131165E-03  0.43754897E-02
 -0.17398242E-02 -0.14008052E-02 -0.78291288E-04
  0.20140339E-02 -0.33418471E-02 -0.32733464E-02
  0.23146454E-02  0.51594131E-02  0.57854184E-03
  0.37857403E-02 -0.14915881E-02 -0.16393866E-02
  0.41624178E-02 -0.21526286E-02  0.25166398E-02
 -0.10897282E-02 -0.21074114E-02 -0.15355534E-02
 -0.34027059E-02 -0.21570282E-02 -0.65114316E-02
  0.46879377E-03  0.43726571E-02 -0.51976967E-02
  0.30961131E-02 -0.41598296E-02  0.21518437E-02
 -0.74104591E-02  0.16330925E-02 -0.71491526E-03
  0.54076166E-02 -0.19194368E-02  0.84716470E-04
  0.63768378E-03  0.77835165E-04  0.44402608E-02
  0.13266533E-02  0.41207457E-02 -0.18679546E-02
  0.37735244E-03 -0.13352583E-02  0.34642318E-02
 -0.26526840E-02  0.10850966E-02  0.65791291E-03
  0.17760375E-02  0.41570405E-02 -0.10039153E-02
  0.41701063E-03  0.58546934E-02 -0.21410641E-02
  0.36635953E-02 -0.12585505E-02 -0.29936938E-02
  0.36048881E-02 -0.19833341E-02  0.31696590E-02
 -0.22958037E-02  0.18798975E-02  0.19503563E-02
 -0.43432818E-02  0.19946517E-02  0.21519010E-02
  0.14675492E-03 -0.18906761E-02 -0.16308365E-02
  0.26926183E-02  0.26248955E-02  0.21441140E-02
  0.75975516E-02  0.46588410E-02 -0.46169012E-02
 -0.26685565E-03  0.16020558E-02  0.30607483E-02
 -0.36248229E-02  0.49459042E-02  0.22222215E-02
 -0.46797247E-03  0.29956135E-03  0.12596729E-02
 -0.94278683E-02 -0.23391877E-02 -0.20743711E-02
  0.83004294E-02  0.15396430E-02 -0.11888228E-02
 -0.11073893E-02  0.97685260E-03 -0.72215419E-03
 -0.16366717E-02 -0.31753510E-02  0.33255557E-02
 -0.13905810E-02  0.15194275E-02  0.53369863E-02
  0.21482000E-02 -0.50953601E-03  0.17375721E-02
 -0.13737271E-02  0.76973451E-03 -0.52238350E-02
  0.82543424E-02  0.20778170E-02  0.13920763E-02
 -0.36232378E-02  0.25968628E-02 -0.45628577E-03
  0.29723722E-03  0.31355102E-02  0.19377676E-02
 -0.14419398E-02 -0.20558739E-02 -0.16971701E-02
 -0.28566131E-02 -0.37919935E-03 -0.46904138E-02
  0.11156363E-02  0.36580533E-03  0.11865481E-02
  0.28125171E-02 -0.56375827E-03 -0.55294369E-02
  0.30696088E-02  0.58036106E-03 -0.12970742E-02
 -0.25556856E-02  0.21936865E-02  0.60456403E-03
  0.42267344E-02  0.13018984E-02  0.52883996E-02
  0.22417296E-02 -0.19538660E-02  0.30600182E-02
 -0.63120791E-02  0.33289294E-02  0.20331609E-02
 -0.91659292E-03 -0.33013630E-02 -0.30645778E-02
  0.16921920E-02 -0.31746983E-02 -0.26850406E-02
 
           1
   1.00000000000000     
 -0.50976671E+00 -0.58471839E-02 -0.50095379E-02 -0.50433835E+00
  0.26195943E+00  0.97949723E+00  0.99924053E+00
  0.25879576E+00  0.55599321E-02  0.48365574E+00
  0.23265558E+00  0.50657702E+00  0.99947699E+00
  0.24659263E+00  0.50849201E+00  0.49630246E+00
  0.25302998E+00  0.22714615E+00  0.23266371E+00
  0.26183932E+00  0.24562169E+00  0.76699732E+00
  0.23857979E+00  0.75025865E+00  0.24552041E+00
  0.23756475E+00  0.75120151E+00  0.75088979E+00
  0.99697496E+00  0.26047406E+00  0.72879106E-02
  0.95852459E-02  0.26215654E+00  0.49270139E+00
  0.97848350E+00  0.99298136E+00  0.26214452E+00
  0.15891086E-01  0.99691677E+00  0.73905977E+00
  0.98800922E+00  0.49823629E+00  0.27695599E+00
  0.99435791E+00  0.49190738E+00  0.75056251E+00
  0.99712325E+00  0.75142106E+00  0.99765882E+00
  0.78896410E-02  0.76048487E+00  0.51101995E+00
  0.50758161E+00  0.23611422E+00  0.47204479E-03
  0.49058462E+00  0.23213734E+00  0.50070160E+00
  0.50246284E+00  0.99475560E+00  0.25683129E+00
  0.50023704E+00  0.11720503E-01  0.74603830E+00
  0.49630803E+00  0.51380183E+00  0.26292203E+00
  0.50660520E+00  0.51885205E+00  0.74128081E+00
  0.50085911E+00  0.73912286E+00  0.82037272E-03
  0.51495459E+00  0.77598808E+00  0.49732831E+00
  0.74991798E+00  0.98197518E+00  0.97775572E+00
  0.76016404E+00  0.17386775E-01  0.50020475E+00
  0.75378344E+00  0.50972819E+00  0.95743578E-02
  0.74262197E+00  0.48135259E+00  0.50986092E+00
  0.76593444E+00  0.24139074E+00  0.23017595E+00
  0.75193624E+00  0.25249348E+00  0.76098810E+00
  0.74990170E+00  0.75212728E+00  0.24922412E+00
  0.75497995E+00  0.75463287E+00  0.73912170E+00
  0.23176188E+00  0.24035604E+00  0.56972189E-02
  0.25014076E+00  0.24771023E+00  0.48949096E+00
  0.25878850E+00  0.28840262E-02  0.24529317E+00
  0.27915791E+00  0.28986113E-02  0.72541643E+00
  0.23522859E+00  0.51203192E+00  0.24132635E+00
  0.24981392E+00  0.50361159E+00  0.75226409E+00
  0.25153674E+00  0.73451924E+00  0.97678306E+00
  0.24839708E+00  0.75456778E+00  0.52289396E+00
  0.99778696E+00  0.98363711E+00  0.98651500E+00
  0.99951055E+00  0.34693924E-02  0.51096998E+00
  0.98320992E+00  0.51279757E+00  0.24083115E-03
  0.98677847E+00  0.50288475E+00  0.50381284E+00
  0.29484499E-02  0.24142361E+00  0.24552679E+00
  0.76294679E-02  0.25134912E+00  0.75357554E+00
  0.98536079E+00  0.76249065E+00  0.25636917E+00
  0.34219329E-02  0.76731384E+00  0.75032798E+00
  0.50961872E+00  0.34556056E-02  0.11597341E-01
  0.49448290E+00  0.99851832E+00  0.48341459E+00
  0.50131391E+00  0.49567657E+00  0.97308256E+00
  0.48777822E+00  0.49473294E+00  0.48699102E+00
  0.49590571E+00  0.24851902E+00  0.25169122E+00
  0.51527578E+00  0.24686965E+00  0.74418259E+00
  0.48555144E+00  0.74768550E+00  0.23405693E+00
  0.50932147E+00  0.75741750E+00  0.73684962E+00
  0.75702218E+00  0.23233079E+00  0.99084343E+00
  0.75275017E+00  0.24890592E+00  0.49967771E+00
  0.74609018E+00  0.27763560E-02  0.25191987E+00
  0.76859268E+00  0.57109654E-02  0.74610210E+00
  0.74186724E+00  0.49602299E+00  0.26445893E+00
  0.75256859E+00  0.48317495E+00  0.75653814E+00
  0.72968650E+00  0.74118516E+00  0.98527552E+00
  0.75168983E+00  0.76625047E+00  0.50636857E+00
  0.00000000E+00  0.00000000E+00  0.00000000E+00
  0.00000000E+00  0.00000000E+00  0.00000000E+00
  0.00000000E+00  0.00000000E+00  0.00000000E+00
  0.00000000E+00  0.00000000E+00  0.00000000E+00
  0.00000000E+00  0.00000000E+00  0.00000000E+00
  0.00000000E+00  0.00000000E+00  0.00000000E+00
  0.00000000E+00  0.00000000E+00  0.00000000E+00
  0.00000000E+00  0.00000000E+00  0.00000000E+00
  0.00000000E+00  0.00000000E+00  0.00000000E+00
  0.00000000E+00  0.00000000E+00  0.00000000E+00
  0.00000000E+00  0.00000000E+00  0.00000000E+00
  0.00000000E+00  0.00000000E+00  0.00000000E+00
  0.00000000E+00  0.00000000E+00  0.00000000E+00
  0.00000000E+00  0.00000000E+00  0.00000000E+00
  0.00000000E+00  0.00000000E+00  0.00000000E+00
  0.00000000E+00  0.00000000E+00  0.00000000E+00
  0.00000000E+00  0.00000000E+00  0.00000000E+00
  0.00000000E+00  0.00000000E+00  0.00000000E+00
  0.00000000E+00  0.00000000E+00  0.00000000E+00
  0.00000000E+00  0.00000000E+00  0.00000000E+00
  0.00000000E+00  0.00000000E+00  0.00000000E+00
  0.00000000E+00  0.00000000E+00  0.00000000E+00
  0.00000000E+00  0.00000000E+00  0.00000000E+00
  0.00000000E+00  0.00000000E+00  0.00000000E+00
  0.00000000E+00  0.00000000E+00  0.00000000E+00
  0.00000000E+00  0.00000000E+00  0.00000000E+00
  0.00000000E+00  0.00000000E+00  0.00000000E+00
  0.00000000E+00  0.00000000E+00  0.00000000E+00
  0.00000000E+00  0.00000000E+00  0.00000000E+00
  0.00000000E+00  0.00000000E+00  0.00000000E+00
  0.00000000E+00  0.00000000E+00  0.00000000E+00
  0.00000000E+00  0.00000000E+00  0.00000000E+00
  0.00000000E+00  0.00000000E+00  0.00000000E+00
  0.00000000E+00  0.00000000E+00  0.00000000E+00
  0.00000000E+00  0.00000000E+00  0.00000000E+00
  0.00000000E+00  0.00000000E+00  0.00000000E+00
  0.00000000E+00  0.00000000E+00  0.00000000E+00
  0.00000000E+00  0.00000000E+00  0.00000000E+00
  0.00000000E+00  0.00000000E+00  0.00000000E+00
  0.00000000E+00  0.00000000E+00  0.00000000E+00
  0.00000000E+00  0.00000000E+00  0.00000000E+00
  0.00000000E+00  0.00000000E+00  0.00000000E+00
  0.00000000E+00  0.00000000E+00  0.00000000E+00
  0.00000000E+00  0.00000000E+00  0.00000000E+00
  0.00000000E+00  0.00000000E+00  0.00000000E+00
  0.00000000E+00  0.00000000E+00  0.00000000E+00
  0.00000000E+00  0.00000000E+00  0.00000000E+00
  0.00000000E+00  0.00000000E+00  0.00000000E+00
  0.00000000E+00  0.00000000E+00  0.00000000E+00
  0.00000000E+00  0.00000000E+00  0.00000000E+00
  0.00000000E+00  0.00000000E+00  0.00000000E+00
  0.00000000E+00  0.00000000E+00  0.00000000E+00
  0.00000000E+00  0.00000000E+00  0.00000000E+00
  0.00000000E+00  0.00000000E+00  0.00000000E+00
  0.00000000E+00  0.00000000E+00  0.00000000E+00
  0.00000000E+00  0.00000000E+00  0.00000000E+00
  0.00000000E+00  0.00000000E+00  0.00000000E+00
  0.00000000E+00  0.00000000E+00  0.00000000E+00
  0.00000000E+00  0.00000000E+00  0.00000000E+00
  0.00000000E+00  0.00000000E+00  0.00000000E+00
  0.00000000E+00  0.00000000E+00  0.00000000E+00
  0.00000000E+00  0.00000000E+00  0.00000000E+00
  0.00000000E+00  0.00000000E+00  0.00000000E+00
  0.00000000E+00  0.00000000E+00  0.00000000E+00
  0.00000000E+00  0.00000000E+00  0.00000000E+00
  0.00000000E+00  0.00000000E+00  0.00000000E+00
  0.00000000E+00  0.00000000E+00  0.00000000E+00
  0.00000000E+00  0.00000000E+00  0.00000000E+00
  0.00000000E+00  0.00000000E+00  0.00000000E+00
  0.00000000E+00  0.00000000E+00  0.00000000E+00
  0.00000000E+00  0.00000000E+00  0.00000000E+00
  0.00000000E+00  0.00000000E+00  0.00000000E+00
  0.00000000E+00  0.00000000E+00  0.00000000E+00
  0.00000000E+00  0.00000000E+00  0.00000000E+00
  0.00000000E+00  0.00000000E+00  0.00000000E+00
  0.00000000E+00  0.00000000E+00  0.00000000E+00
  0.00000000E+00  0.00000000E+00  0.00000000E+00
  0.00000000E+00  0.00000000E+00  0.00000000E+00
  0.00000000E+00  0.00000000E+00  0.00000000E+00
  0.00000000E+00  0.00000000E+00  0.00000000E+00
  0.00000000E+00  0.00000000E+00  0.00000000E+00
  0.00000000E+00  0.00000000E+00  0.00000000E+00
  0.00000000E+00  0.00000000E+00  0.00000000E+00
  0.00000000E+00  0.00000000E+00  0.00000000E+00
  0.00000000E+00  0.00000000E+00  0.00000000E+00
  0.00000000E+00  0.00000000E+00  0.00000000E+00
  0.00000000E+00  0.00000000E+00  0.00000000E+00
  0.00000000E+00  0.00000000E+00  0.00000000E+00
  0.00000000E+00  0.00000000E+00  0.00000000E+00
  0.00000000E+00  0.00000000E+00  0.00000000E+00
  0.00000000E+00  0.00000000E+00  0.00000000E+00
  0.00000000E+00  0.00000000E+00  0.00000000E+00
  0.00000000E+00  0.00000000E+00  0.00000000E+00
  0.00000000E+00  0.00000000E+00  0.00000000E+00
  0.00000000E+00  0.00000000E+00  0.00000000E+00
  0.00000000E+00  0.00000000E+00  0.00000000E+00
  0.00000000E+00  0.00000000E+00  0.00000000E+00
  0.00000000E+00  0.00000000E+00  0.00000000E+00
  0.00000000E+00  0.00000000E+00  0.00000000E+00
  0.00000000E+00  0.00000000E+00  0.00000000E+00
  0.00000000E+00  0.00000000E+00  0.00000000E+00
  0.00000000E+00  0.00000000E+00  0.00000000E+00
  0.00000000E+00  0.00000000E+00  0.00000000E+00
  0.00000000E+00  0.00000000E+00  0.00000000E+00
  0.00000000E+00  0.00000000E+00  0.00000000E+00
  0.00000000E+00  0.00000000E+00  0.00000000E+00
  0.00000000E+00  0.00000000E+00  0.00000000E+00
  0.00000000E+00  0.00000000E+00  0.00000000E+00
  0.00000000E+00  0.00000000E+00  0.00000000E+00
  0.00000000E+00  0.00000000E+00  0.00000000E+00
  0.00000000E+00  0.00000000E+00  0.00000000E+00
  0.00000000E+00  0.00000000E+00  0.00000000E+00
  0.00000000E+00  0.00000000E+00  0.00000000E+00
  0.00000000E+00  0.00000000E+00  0.00000000E+00
  0.00000000E+00  0.00000000E+00  0.00000000E+00
  0.00000000E+00  0.00000000E+00  0.00000000E+00
  0.00000000E+00  0.00000000E+00  0.00000000E+00
  0.00000000E+00  0.00000000E+00  0.00000000E+00
  0.00000000E+00  0.00000000E+00  0.00000000E+00
  0.00000000E+00  0.00000000E+00  0.00000000E+00
  0.00000000E+00  0.00000000E+00  0.00000000E+00
  0.00000000E+00  0.00000000E+00  0.00000000E+00
  0.00000000E+00  0.00000000E+00  0.00000000E+00
  0.00000000E+00  0.00000000E+00  0.00000000E+00
  0.00000000E+00  0.00000000E+00  0.00000000E+00
  0.00000000E+00  0.00000000E+00  0.00000000E+00
  0.00000000E+00  0.00000000E+00  0.00000000E+00
  0.00000000E+00  0.00000000E+00  0.00000000E+00
