NaFNPT                                  
   1.00000000000000     
     9.4069619572559303    0.0031333384790655    0.0196151152233961
    -0.0000000000067388    9.4069678773824030    0.0233095823872160
    -0.0000000000027863   -0.0000000000036032    9.4069677853730901
   F   Na 
    32    32
Cartesian
   2.35224247       2.77383006E-05   2.77383006E-05
    2.35224247       2.77383006E-05   4.70432711    
    2.35224247       4.70432711       2.77383006E-05
    2.35224247       4.70432711       4.70432711    
    2.35224342       2.35224342       2.35224342    
    2.35224342       2.35224342       7.05654287    
    2.35224342       7.05654287       2.35224342    
    2.35224342       7.05654287       7.05654287    
    2.77383006E-05   2.35224247       2.77383006E-05
    2.77383006E-05   2.35224247       4.70432711    
    2.77383006E-05   2.77383006E-05   2.35224247    
    2.77383006E-05   2.77383006E-05   7.05654192    
    2.77383006E-05   4.70432711       2.35224247    
    2.77383006E-05   4.70432711       7.05654192    
    2.77383006E-05   7.05654192       2.77383006E-05
    2.77383006E-05   7.05654192       4.70432711    
    4.70432711       2.35224247       2.77383006E-05
    4.70432711       2.35224247       4.70432711    
    4.70432711       2.77383006E-05   2.35224247    
    4.70432711       2.77383006E-05   7.05654192    
    4.70432711       4.70432711       2.35224247    
    4.70432711       4.70432711       7.05654192    
    4.70432711       7.05654192       2.77383006E-05
    4.70432711       7.05654192       4.70432711    
    7.05654192       2.77383006E-05   2.77383006E-05
    7.05654192       2.77383006E-05   4.70432711    
    7.05654192       4.70432711       2.77383006E-05
    7.05654192       4.70432711       4.70432711    
    7.05654287       2.35224342       2.35224342    
    7.05654287       2.35224342       7.05654287    
    7.05654287       7.05654287       2.35224342    
    7.05654287       7.05654287       7.05654287    
    2.35224557       2.35224557       2.55113991E-05
    2.35224557       2.35224557       4.70432520    
    2.35224557       2.55113991E-05   2.35224557    
    2.35224557       2.55113991E-05   7.05654526    
    2.35224557       4.70432520       2.35224557    
    2.35224557       4.70432520       7.05654526    
    2.35224557       7.05654526       2.55113991E-05
    2.35224557       7.05654526       4.70432520    
    2.52437003E-05   2.52437003E-05   2.52437003E-05
    2.52437003E-05   2.52437003E-05   4.70432472    
    2.52437003E-05   4.70432472       2.52437003E-05
    2.52437003E-05   4.70432472       4.70432472    
    2.55113991E-05   2.35224557       2.35224557    
    2.55113991E-05   2.35224557       7.05654526    
    2.55113991E-05   7.05654526       2.35224557    
    2.55113991E-05   7.05654526       7.05654526    
    4.70432472       2.52437003E-05   2.52437003E-05
    4.70432472       2.52437003E-05   4.70432472    
    4.70432472       4.70432472       2.52437003E-05
    4.70432472       4.70432472       4.70432472    
    4.70432520       2.35224557       2.35224557    
    4.70432520       2.35224557       7.05654526    
    4.70432520       7.05654526       2.35224557    
    4.70432520       7.05654526       7.05654526    
    7.05654526       2.35224557       2.55113991E-05
    7.05654526       2.35224557       4.70432520    
    7.05654526       2.55113991E-05   2.35224557    
    7.05654526       2.55113991E-05   7.05654526    
    7.05654526       4.70432520       2.35224557    
    7.05654526       4.70432520       7.05654526    
    7.05654526       7.05654526       2.55113991E-05
    7.05654526       7.05654526       4.70432520    

