MgF2NPT2x2x3
1.0000
9.24442389809 0. 0.
0. 9.24442389809 0.
0. 0. 9.18205581117
Mg F 
24 48 
Cartesian
   6.93331242       6.93331242       7.65170860
   6.93331242       6.93331242       4.59102345
   6.93331242       6.93331242       1.53033829
   6.93331242       2.31110024       7.65170860
   6.93331242       2.31110024       4.59102345
   6.93331242       2.31110024       1.53033829
   4.62221193       4.62221193       6.12137032
   4.62221193       4.62221193       3.06068516
   4.62221193       4.62221193       0.00000000
   4.62221193       0.00000000       6.12137032
   4.62221193       0.00000000       3.06068516
   4.62221193       0.00000000       0.00000000
   2.31110024       6.93331242       7.65170860
   2.31110024       6.93331242       4.59102345
   2.31110024       6.93331242       1.53033829
   2.31110024       2.31110024       7.65170860
   2.31110024       2.31110024       4.59102345
   2.31110024       2.31110024       1.53033829
   0.00000000       4.62221193       6.12137032
   0.00000000       4.62221193       3.06068516
   0.00000000       4.62221193       0.00000000
   0.00000000       0.00000000       6.12137032
   0.00000000       0.00000000       3.06068516
   0.00000000       0.00000000       0.00000000
  0.911768317       8.33265400       7.65170860
  0.911768317       8.33265400       4.59102345
  0.911768317       8.33265400       1.53033829
  0.911768317       3.71044183       7.65170860
  0.911768317       3.71044183       4.59102345
  0.911768317       3.71044183       1.53033829
   8.33265400      0.911768317       7.65170860
   8.33265400      0.911768317       4.59102345
   8.33265400      0.911768317       1.53033829
   8.33265400       5.53398037       7.65170860
   8.33265400       5.53398037       4.59102345
   8.33265400       5.53398037       1.53033829
   7.84508228       7.84508228       6.12137032
   7.84508228       7.84508228       3.06068516
   7.84508228       7.84508228       0.00000000
   7.84508228       3.22287035       6.12137032
   7.84508228       3.22287035       3.06068516
   7.84508228       3.22287035       0.00000000
   6.02155161       6.02155161       6.12137032
   6.02155161       6.02155161       3.06068516
   6.02155161       6.02155161       0.00000000
   6.02155161       1.39933980       6.12137032
   6.02155161       1.39933980       3.06068516
   6.02155161       1.39933980       0.00000000
   5.53398037       8.33265400       7.65170860
   5.53398037       8.33265400       4.59102345
   5.53398037       8.33265400       1.53033829
   5.53398037       3.71044183       7.65170860
   5.53398037       3.71044183       4.59102345
   5.53398037       3.71044183       1.53033829
   3.71044183      0.911768317       7.65170860
   3.71044183      0.911768317       4.59102345
   3.71044183      0.911768317       1.53033829
   3.71044183       5.53398037       7.65170860
   3.71044183       5.53398037       4.59102345
   3.71044183       5.53398037       1.53033829
   3.22287035       7.84508228       6.12137032
   3.22287035       7.84508228       3.06068516
   3.22287035       7.84508228       0.00000000
   3.22287035       3.22287035       6.12137032
   3.22287035       3.22287035       3.06068516
   3.22287035       3.22287035       0.00000000
   1.39933980       6.02155161       6.12137032
   1.39933980       6.02155161       3.06068516
   1.39933980       6.02155161       0.00000000
   1.39933980       1.39933980       6.12137032
   1.39933980       1.39933980       3.06068516
   1.39933980       1.39933980       0.00000000


