CaF2optimization                        
   1.00000000000000     
    10.9489999999999998    0.0000000000000000    0.0000000000000000
     0.0000000000000000   10.9493369999999999    0.0000000000000000
     0.0000000000000000    0.0000000000000000   10.9493371100000001
   Ca   F 
    32    64
Direct
  0.0168258343970624  0.0190641450758058  0.0078450471285205
  0.0133244237738922  0.2659384061070528  0.2630690207018318
  0.2767485336489972  0.0069244933847121  0.2646614945676957
  0.2621589131782868  0.2602516836672627  0.0054522370862799
  0.0206225957642489  0.0112216506833623  0.5129571995052306
  0.0128782309633033  0.2553187959705326  0.7684458456505050
  0.2721355268437426  0.0132955305876338  0.7539222459868185
  0.2628761253815354  0.2607050718750737  0.5091926012258075
  0.0120858397468893  0.5231545771285566  0.0188561321142336
  0.0222568078752821  0.7620564144258909  0.2643622214449139
  0.2588770210298373  0.5143114056861068  0.2677925098782800
  0.2638294709752039  0.7707904714819742  0.0034838071774478
  0.0096641228931150  0.5132178862735713  0.5158558073990035
  0.0110666033059617  0.7701578748423208  0.7682794504820920
  0.2550633922728517  0.5078470262887794  0.7708381779763283
  0.2697425486199518  0.7556457428680244  0.5166558875381465
  0.5149247122843095  0.0226645875415249  0.0150357661031326
  0.5120490158598821  0.2714442270086875  0.2565053515345141
  0.7670391349171404  0.0191004970777219  0.2577362907084655
  0.7634249105954736  0.2684094935865897  0.0140618677743521
  0.5177637088402167  0.0166659849982685  0.5091440931133208
  0.5083468559721912  0.2655468028510699  0.7698158586482486
  0.7636532037973447  0.0113525528428851  0.7667982033925778
  0.7583374903372636  0.2607286406550495  0.5125864296425844
  0.5107054670791609  0.5188154888374099  0.0164058624207298
  0.5180489461161297  0.7621748492516885  0.2732650522482939
  0.7547291985918397  0.5165945412845735  0.2677999853341696
  0.7666221895182826  0.7721747422308745  0.0202160151367973
  0.5088498387979595  0.5021195669718241  0.5272104809441295
  0.5154009295731847  0.7626795478334181  0.7679576940304186
  0.7676372262209020  0.5128875059703728  0.7642491117509056
  0.7688544654183160  0.7596773337683345  0.5131489526625530
  0.1409754034553523  0.1377497237041485  0.1390731109630838
  0.3962385423756868  0.3951258280176642  0.1536422768242010
  0.3802379488926731  0.1369307453386955  0.3856672669039212
  0.1321352040003165  0.3951028241190330  0.3913839714181019
  0.1456157270688272  0.1451581136750568  0.3911701407944241
  0.3820853489440025  0.3874217442382988  0.3827321356251481
  0.1359086323976148  0.3890257080912941  0.1377816943842580
  0.3944354128885299  0.1389200276349466  0.1319286047497212
  0.1478032081684685  0.1443788942603567  0.6370679840790127
  0.3778835132987741  0.3743022014621151  0.6515165764477124
  0.3937985715750397  0.1476787502774870  0.8878725310473400
  0.1378169274001730  0.3962431550076905  0.8909870937154899
  0.1408937814867836  0.1575837383405145  0.8925551117205897
  0.3922688246954232  0.3936038628109856  0.9007021359495864
  0.1358905594996561  0.3844789904943257  0.6419079529829179
  0.3903773770825630  0.1330159797648714  0.6338599956187633
  0.1259633464535003  0.6346706962142102  0.1381568359285206
  0.3892419443193830  0.8710217027606471  0.1449855505580269
  0.3971955461505910  0.6322292354007353  0.4044568633038150
  0.1449663796417323  0.8792227063209545  0.3802226589120141
  0.1444830657654952  0.6438897654261596  0.3841880778881143
  0.3948165195670523  0.8911016697800102  0.3929612042332148
  0.1462760697852976  0.8797256533431357  0.1342129131842714
  0.3774848312810563  0.6307284776597728  0.1349985669996977
  0.1312957100767403  0.6364195982188136  0.6375636775885093
  0.3967927972449535  0.8745234616488686  0.6442553060723686
  0.3839581991819968  0.6425298034096204  0.8891943407331135
  0.1446928234425709  0.9024417237075288  0.8889233992177529
  0.1318044012563212  0.6406896456506996  0.8894404155209507
  0.4031291653608096  0.8958761804709701  0.8934250933329925
  0.1385702709099148  0.8889869162922327  0.6368071686522917
  0.3965896979373759  0.6363502143181368  0.6454048306661138
  0.6440736976092656  0.1320160785676957  0.1303010112420636
  0.8850913323737827  0.3881845383044570  0.1378834490044210
  0.8985469607438336  0.1330802387650845  0.3853879942352034
  0.6278964381834595  0.3995873610418846  0.3957101834512203
  0.6285540867082976  0.1500386952450976  0.3842014607799646
  0.8780033186906131  0.4002086274663845  0.3794861361727426
  0.6444851056371868  0.3860706369620428  0.1317672239295982
  0.8874768842668849  0.1490403398378344  0.1348388342013638
  0.6354252540585161  0.1383067597643923  0.6397138378748148
  0.8831678497640962  0.3761983874166631  0.6368022543065764
  0.8821590052351082  0.1421349596418086  0.8917462722634112
  0.6459579776841149  0.3972680146756152  0.8856481977508922
  0.6323261746023479  0.1429663099219305  0.8856919330130175
  0.8860180234110917  0.3887611423586301  0.8851950427133394
  0.6309675796671476  0.3798254567199071  0.6429091422351765
  0.8896702865920455  0.1265859815917744  0.6408545740860637
  0.6372316832311288  0.6345520654521990  0.1419332336332304
  0.8969823271793393  0.8986108454404319  0.1447442230690155
  0.8966886723768847  0.6417937759048958  0.3921187819230234
  0.6437947111783131  0.8948981555245381  0.3948151898422747
  0.6485695085000739  0.6421141119986595  0.3853298096313739
  0.8872986898807951  0.8978859113014754  0.3928222937746381
  0.6478165728167817  0.8836129021779406  0.1458040449389817
  0.8850001493479390  0.6558786326595439  0.1415432821062179
  0.6561422759909591  0.6397786177891808  0.6367411865855412
  0.8972306897271789  0.8871242970284013  0.6538175751465259
  0.8841992082438743  0.6445603736981335  0.8913104218340646
  0.6452174169348552  0.9055743945196543  0.9045519679576742
  0.6351717660194984  0.6502911653060834  0.8904367501864241
  0.8901606547162584  0.8861269208587674  0.8929054992651925
  0.6525144038883535  0.8943521864460725  0.6409231526873350
  0.8986477324873537  0.6371683418191241  0.6417589901259655
 
  0.63006425E-03  0.75966111E-03  0.10743845E-02
  0.27146373E-02 -0.42101272E-03  0.10886027E-03
  0.25698883E-02  0.57015738E-03 -0.83883442E-03
  0.31292562E-02 -0.19533773E-02 -0.22581953E-02
 -0.30518402E-03  0.16208351E-02  0.35154744E-02
  0.27385231E-02 -0.14512112E-02 -0.16421618E-02
  0.13234668E-02  0.28403976E-02  0.21570892E-02
  0.13221116E-02 -0.64509833E-03 -0.20304733E-02
 -0.57670407E-03 -0.11257176E-02 -0.36137385E-02
 -0.10413459E-02 -0.42664760E-03  0.14754241E-02
  0.21605880E-02 -0.49552721E-02  0.24786543E-03
  0.39318365E-02 -0.23995039E-02  0.41382437E-02
 -0.24093698E-02 -0.17552456E-02  0.25578043E-02
 -0.77920518E-03  0.63672792E-03 -0.69371408E-03
  0.28691187E-02 -0.43789559E-02  0.70255939E-03
  0.49615700E-02 -0.60967851E-03  0.95169629E-03
 -0.15924219E-02 -0.56048884E-03  0.38328684E-03
 -0.29948149E-03  0.25380463E-03 -0.17080870E-02
 -0.32743340E-02 -0.38443497E-02 -0.13383586E-02
 -0.10165312E-02 -0.39126124E-02  0.11908586E-02
 -0.48764827E-02 -0.27575623E-03  0.68011079E-03
 -0.25686513E-02  0.32291133E-02  0.81033270E-03
 -0.65261573E-02  0.20864024E-03 -0.31033800E-02
  0.20307725E-02  0.33688267E-02  0.69430828E-03
 -0.42466840E-02 -0.51286604E-02  0.28420447E-02
 -0.34527062E-02 -0.78794839E-03 -0.16146990E-02
  0.31647839E-02 -0.14627763E-03  0.43461079E-03
  0.29429793E-02  0.94136317E-03 -0.10091475E-02
 -0.87295870E-03  0.42624816E-02 -0.27856948E-02
  0.33600527E-03  0.18102866E-02 -0.24843379E-02
  0.62742698E-03 -0.29808263E-02  0.94104456E-03
  0.25495650E-02 -0.12945454E-02 -0.53477651E-02
  0.17188001E-02  0.60068312E-02 -0.26179078E-03
  0.35892730E-02  0.16209782E-02 -0.24519474E-03
  0.14268520E-02 -0.18780791E-02  0.18918868E-02
  0.23148426E-02  0.10243864E-02 -0.10954963E-03
 -0.16389750E-02  0.17246553E-02 -0.46098724E-02
 -0.11212275E-02 -0.20589607E-02 -0.29242820E-02
  0.11755234E-02 -0.66128766E-02  0.47042792E-02
 -0.13930907E-01 -0.48439815E-02 -0.28016229E-03
 -0.31473860E-02  0.12196696E-01  0.66158709E-02
  0.81464900E-02  0.20009308E-03 -0.33945490E-02
 -0.35630823E-02 -0.18398794E-02  0.14732790E-02
  0.70394392E-02  0.25276774E-02 -0.39489062E-05
 -0.58823292E-03 -0.49764326E-02 -0.32324146E-02
 -0.14966010E-02  0.83932078E-02  0.66601890E-02
  0.53571066E-02 -0.11784585E-02 -0.16400254E-02
 -0.34704109E-02  0.16336126E-02  0.14824151E-02
  0.52560781E-02 -0.31417333E-02  0.21265494E-02
 -0.36677027E-02  0.52043296E-02  0.37678307E-02
 -0.59930937E-02 -0.57268505E-02  0.25426490E-02
  0.17657431E-02 -0.81433511E-03 -0.24127883E-02
  0.46082887E-02 -0.96958979E-03 -0.76330234E-03
 -0.55892449E-02  0.24004127E-02 -0.25356220E-02
  0.38443223E-02 -0.19492780E-02  0.11446682E-02
  0.20844116E-02 -0.15295161E-02 -0.13887079E-02
 -0.33336058E-02  0.16013781E-02 -0.18704699E-02
 -0.39882764E-03 -0.37808534E-02  0.18252111E-02
  0.34977060E-02  0.52392833E-02 -0.24688208E-03
  0.23191092E-03  0.64205812E-03  0.71174138E-04
  0.61885328E-02 -0.48321259E-02  0.21865004E-02
 -0.32567236E-02  0.37896232E-02  0.30497525E-02
 -0.36128228E-02  0.67900082E-02  0.64875980E-02
 -0.41990850E-02  0.82091446E-03 -0.28532212E-02
 -0.33031424E-02 -0.11538460E-02 -0.13907308E-02
 -0.92483112E-03  0.54298276E-02 -0.36742681E-02
 -0.23337715E-02 -0.35104217E-02  0.28133622E-02
 -0.18419416E-02 -0.21436897E-02  0.97163713E-03
 -0.46287898E-02  0.73276162E-02  0.36581875E-03
  0.43417384E-02  0.61794264E-03 -0.31893050E-02
 -0.37786323E-04  0.65784459E-02 -0.27414776E-02
 -0.28042495E-02 -0.39751896E-02  0.12162403E-02
  0.34733560E-02  0.73893466E-02 -0.17675145E-03
  0.22323450E-02 -0.41070961E-03 -0.20264522E-02
  0.24483561E-02  0.28072902E-02  0.32513464E-02
 -0.17949887E-02 -0.36345950E-02 -0.51866425E-02
  0.19042882E-02 -0.73859423E-03 -0.58262913E-02
  0.14218705E-03 -0.34576910E-02  0.72314113E-02
  0.28506849E-02 -0.23411572E-02  0.23057049E-02
  0.19709098E-03 -0.31396098E-02 -0.63597912E-03
 -0.40725451E-03 -0.32956450E-02 -0.54762435E-02
  0.10599244E-02 -0.18717403E-02 -0.26930667E-02
 -0.10900793E-02  0.43793769E-02 -0.18587057E-02
  0.22848087E-03 -0.40225992E-02  0.35587608E-02
  0.21013298E-02  0.44289796E-02  0.41706678E-02
 -0.10477695E-02  0.69420376E-02  0.67587317E-02
  0.80801986E-03  0.33779001E-02 -0.41035824E-02
 -0.53714569E-02  0.58995277E-02 -0.35501844E-04
 -0.69620199E-02  0.66590751E-02 -0.36718018E-02
  0.30313307E-02 -0.95170308E-02 -0.79345619E-03
  0.22172734E-02  0.45474565E-03  0.25683941E-02
 -0.17824683E-03  0.20638104E-03 -0.16818954E-02
 -0.44136913E-02 -0.29596054E-03  0.27410924E-02
  0.39698401E-02  0.39271518E-02  0.42971535E-02
 -0.41297152E-03 -0.80448091E-02  0.14171267E-02
 -0.56949552E-02  0.85792321E-02 -0.40275821E-02
 
           1
  0.500000000000000     
  0.20334731E+01  0.29308002E-02  0.29151147E-02  0.20305501E+01
  0.16854607E-01  0.19098835E-01  0.78941088E-02
  0.13448391E-01  0.26591918E+00  0.26307399E+00
  0.27686589E+00  0.69505295E-02  0.26462319E+00
  0.26230181E+00  0.26016248E+00  0.53491169E-02
  0.20608659E-01  0.11295666E-01  0.51311773E+00
  0.13003289E-01  0.25525253E+00  0.76837086E+00
  0.27219596E+00  0.13425237E-01  0.75402075E+00
  0.26293650E+00  0.26067561E+00  0.50909988E+00
  0.12059504E-01  0.52310317E+00  0.18691111E-01
  0.22209253E-01  0.76203693E+00  0.26442960E+00
  0.25897569E+00  0.51408512E+00  0.26780383E+00
  0.26400902E+00  0.77068090E+00  0.36727795E-02
  0.95540960E-02  0.51313773E+00  0.51597261E+00
  0.11031020E-01  0.77018695E+00  0.76824777E+00
  0.25519441E+00  0.50764706E+00  0.77087026E+00
  0.26996913E+00  0.75561790E+00  0.51669935E+00
  0.51485199E+00  0.22638993E-01  0.15053269E-01
  0.51203534E+00  0.27145582E+00  0.25642735E+00
  0.76688961E+00  0.18924945E-01  0.25767517E+00
  0.76337849E+00  0.26823082E+00  0.14116248E-01
  0.51754102E+00  0.16653393E-01  0.50917515E+00
  0.50822956E+00  0.26569426E+00  0.76985286E+00
  0.76335518E+00  0.11362080E-01  0.76665649E+00
  0.75843023E+00  0.26088248E+00  0.51261814E+00
  0.51051154E+00  0.51858129E+00  0.16535644E-01
  0.51789127E+00  0.76213887E+00  0.27319132E+00
  0.75487372E+00  0.51658786E+00  0.26781983E+00
  0.76675658E+00  0.77221773E+00  0.20169933E-01
  0.50880997E+00  0.50231421E+00  0.52708327E+00
  0.51541627E+00  0.76276221E+00  0.76784425E+00
  0.76766588E+00  0.51275139E+00  0.76429208E+00
  0.76897089E+00  0.75961822E+00  0.51290475E+00
  0.14105389E+00  0.13802402E+00  0.13906116E+00
  0.39640245E+00  0.39519985E+00  0.15363108E+00
  0.38030311E+00  0.13684498E+00  0.38575366E+00
  0.13224091E+00  0.39514960E+00  0.39137897E+00
  0.14554088E+00  0.14523687E+00  0.39095963E+00
  0.38203415E+00  0.38732772E+00  0.38259860E+00
  0.13596231E+00  0.38872373E+00  0.13799651E+00
  0.39379924E+00  0.13869883E+00  0.13191581E+00
  0.14765948E+00  0.14493585E+00  0.63737010E+00
  0.37825553E+00  0.37431134E+00  0.65136156E+00
  0.39363586E+00  0.14759473E+00  0.88793981E+00
  0.13813839E+00  0.39635858E+00  0.89098691E+00
  0.14086692E+00  0.15735649E+00  0.89240750E+00
  0.39220048E+00  0.39398714E+00  0.90100627E+00
  0.13613520E+00  0.38442518E+00  0.64183306E+00
  0.39021890E+00  0.13309058E+00  0.63392769E+00
  0.12620337E+00  0.63452723E+00  0.13825394E+00
  0.38907445E+00  0.87125936E+00  0.14515761E+00
  0.39692186E+00  0.63196772E+00  0.40457297E+00
  0.14504701E+00  0.87918552E+00  0.38011248E+00
  0.14469351E+00  0.64384549E+00  0.38415322E+00
  0.39456128E+00  0.89121128E+00  0.39284542E+00
  0.14645163E+00  0.87963664E+00  0.13426518E+00
  0.37758002E+00  0.63065863E+00  0.13493515E+00
  0.13114348E+00  0.63649272E+00  0.63747826E+00
  0.39677458E+00  0.87435081E+00  0.64433865E+00
  0.38411793E+00  0.64276905E+00  0.88918307E+00
  0.14470341E+00  0.90247104E+00  0.88892665E+00
  0.13208701E+00  0.64046899E+00  0.88954026E+00
  0.40298044E+00  0.89604923E+00  0.89356436E+00
  0.13840529E+00  0.88929698E+00  0.63710342E+00
  0.39639794E+00  0.63638770E+00  0.64527454E+00
  0.64392286E+00  0.13196339E+00  0.13023750E+00
  0.88504910E+00  0.38843249E+00  0.13771566E+00
  0.89844039E+00  0.13291994E+00  0.38551647E+00
  0.62781232E+00  0.39948947E+00  0.39575455E+00
  0.62834271E+00  0.15037331E+00  0.38421817E+00
  0.87820159E+00  0.40023685E+00  0.37934050E+00
  0.64448338E+00  0.38637104E+00  0.13164203E+00
  0.88734882E+00  0.14885881E+00  0.13489437E+00
  0.63558387E+00  0.13864419E+00  0.63970577E+00
  0.88326979E+00  0.37617963E+00  0.63670972E+00
  0.88227081E+00  0.14226315E+00  0.89189474E+00
  0.64587601E+00  0.39710204E+00  0.88541135E+00
  0.63241314E+00  0.14293258E+00  0.88542588E+00
  0.88602452E+00  0.38860325E+00  0.88552526E+00
  0.63109776E+00  0.37971855E+00  0.64301443E+00
  0.88967929E+00  0.12644261E+00  0.64082553E+00
  0.63721309E+00  0.63440157E+00  0.14168316E+00
  0.89703073E+00  0.89852537E+00  0.14462124E+00
  0.89663889E+00  0.64199376E+00  0.39203390E+00
  0.64380515E+00  0.89471446E+00  0.39497770E+00
  0.64866547E+00  0.64231636E+00  0.38552026E+00
  0.88725084E+00  0.89820292E+00  0.39313093E+00
  0.64785347E+00  0.88376715E+00  0.14561666E+00
  0.88475485E+00  0.65614803E+00  0.14154166E+00
  0.65582435E+00  0.64008270E+00  0.63657351E+00
  0.89736912E+00  0.88668970E+00  0.65378134E+00
  0.88430046E+00  0.64458114E+00  0.89142771E+00
  0.64520928E+00  0.90558382E+00  0.90447516E+00
  0.63497021E+00  0.65027765E+00  0.89056192E+00
  0.89034194E+00  0.88630625E+00  0.89310173E+00
  0.65249555E+00  0.89398482E+00  0.64098787E+00
  0.89838767E+00  0.63756011E+00  0.64157507E+00
  0.00000000E+00  0.00000000E+00  0.00000000E+00
  0.00000000E+00  0.00000000E+00  0.00000000E+00
  0.00000000E+00  0.00000000E+00  0.00000000E+00
  0.00000000E+00  0.00000000E+00  0.00000000E+00
  0.00000000E+00  0.00000000E+00  0.00000000E+00
  0.00000000E+00  0.00000000E+00  0.00000000E+00
  0.00000000E+00  0.00000000E+00  0.00000000E+00
  0.00000000E+00  0.00000000E+00  0.00000000E+00
  0.00000000E+00  0.00000000E+00  0.00000000E+00
  0.00000000E+00  0.00000000E+00  0.00000000E+00
  0.00000000E+00  0.00000000E+00  0.00000000E+00
  0.00000000E+00  0.00000000E+00  0.00000000E+00
  0.00000000E+00  0.00000000E+00  0.00000000E+00
  0.00000000E+00  0.00000000E+00  0.00000000E+00
  0.00000000E+00  0.00000000E+00  0.00000000E+00
  0.00000000E+00  0.00000000E+00  0.00000000E+00
  0.00000000E+00  0.00000000E+00  0.00000000E+00
  0.00000000E+00  0.00000000E+00  0.00000000E+00
  0.00000000E+00  0.00000000E+00  0.00000000E+00
  0.00000000E+00  0.00000000E+00  0.00000000E+00
  0.00000000E+00  0.00000000E+00  0.00000000E+00
  0.00000000E+00  0.00000000E+00  0.00000000E+00
  0.00000000E+00  0.00000000E+00  0.00000000E+00
  0.00000000E+00  0.00000000E+00  0.00000000E+00
  0.00000000E+00  0.00000000E+00  0.00000000E+00
  0.00000000E+00  0.00000000E+00  0.00000000E+00
  0.00000000E+00  0.00000000E+00  0.00000000E+00
  0.00000000E+00  0.00000000E+00  0.00000000E+00
  0.00000000E+00  0.00000000E+00  0.00000000E+00
  0.00000000E+00  0.00000000E+00  0.00000000E+00
  0.00000000E+00  0.00000000E+00  0.00000000E+00
  0.00000000E+00  0.00000000E+00  0.00000000E+00
  0.00000000E+00  0.00000000E+00  0.00000000E+00
  0.00000000E+00  0.00000000E+00  0.00000000E+00
  0.00000000E+00  0.00000000E+00  0.00000000E+00
  0.00000000E+00  0.00000000E+00  0.00000000E+00
  0.00000000E+00  0.00000000E+00  0.00000000E+00
  0.00000000E+00  0.00000000E+00  0.00000000E+00
  0.00000000E+00  0.00000000E+00  0.00000000E+00
  0.00000000E+00  0.00000000E+00  0.00000000E+00
  0.00000000E+00  0.00000000E+00  0.00000000E+00
  0.00000000E+00  0.00000000E+00  0.00000000E+00
  0.00000000E+00  0.00000000E+00  0.00000000E+00
  0.00000000E+00  0.00000000E+00  0.00000000E+00
  0.00000000E+00  0.00000000E+00  0.00000000E+00
  0.00000000E+00  0.00000000E+00  0.00000000E+00
  0.00000000E+00  0.00000000E+00  0.00000000E+00
  0.00000000E+00  0.00000000E+00  0.00000000E+00
  0.00000000E+00  0.00000000E+00  0.00000000E+00
  0.00000000E+00  0.00000000E+00  0.00000000E+00
  0.00000000E+00  0.00000000E+00  0.00000000E+00
  0.00000000E+00  0.00000000E+00  0.00000000E+00
  0.00000000E+00  0.00000000E+00  0.00000000E+00
  0.00000000E+00  0.00000000E+00  0.00000000E+00
  0.00000000E+00  0.00000000E+00  0.00000000E+00
  0.00000000E+00  0.00000000E+00  0.00000000E+00
  0.00000000E+00  0.00000000E+00  0.00000000E+00
  0.00000000E+00  0.00000000E+00  0.00000000E+00
  0.00000000E+00  0.00000000E+00  0.00000000E+00
  0.00000000E+00  0.00000000E+00  0.00000000E+00
  0.00000000E+00  0.00000000E+00  0.00000000E+00
  0.00000000E+00  0.00000000E+00  0.00000000E+00
  0.00000000E+00  0.00000000E+00  0.00000000E+00
  0.00000000E+00  0.00000000E+00  0.00000000E+00
  0.00000000E+00  0.00000000E+00  0.00000000E+00
  0.00000000E+00  0.00000000E+00  0.00000000E+00
  0.00000000E+00  0.00000000E+00  0.00000000E+00
  0.00000000E+00  0.00000000E+00  0.00000000E+00
  0.00000000E+00  0.00000000E+00  0.00000000E+00
  0.00000000E+00  0.00000000E+00  0.00000000E+00
  0.00000000E+00  0.00000000E+00  0.00000000E+00
  0.00000000E+00  0.00000000E+00  0.00000000E+00
  0.00000000E+00  0.00000000E+00  0.00000000E+00
  0.00000000E+00  0.00000000E+00  0.00000000E+00
  0.00000000E+00  0.00000000E+00  0.00000000E+00
  0.00000000E+00  0.00000000E+00  0.00000000E+00
  0.00000000E+00  0.00000000E+00  0.00000000E+00
  0.00000000E+00  0.00000000E+00  0.00000000E+00
  0.00000000E+00  0.00000000E+00  0.00000000E+00
  0.00000000E+00  0.00000000E+00  0.00000000E+00
  0.00000000E+00  0.00000000E+00  0.00000000E+00
  0.00000000E+00  0.00000000E+00  0.00000000E+00
  0.00000000E+00  0.00000000E+00  0.00000000E+00
  0.00000000E+00  0.00000000E+00  0.00000000E+00
  0.00000000E+00  0.00000000E+00  0.00000000E+00
  0.00000000E+00  0.00000000E+00  0.00000000E+00
  0.00000000E+00  0.00000000E+00  0.00000000E+00
  0.00000000E+00  0.00000000E+00  0.00000000E+00
  0.00000000E+00  0.00000000E+00  0.00000000E+00
  0.00000000E+00  0.00000000E+00  0.00000000E+00
  0.00000000E+00  0.00000000E+00  0.00000000E+00
  0.00000000E+00  0.00000000E+00  0.00000000E+00
  0.00000000E+00  0.00000000E+00  0.00000000E+00
  0.00000000E+00  0.00000000E+00  0.00000000E+00
  0.00000000E+00  0.00000000E+00  0.00000000E+00
  0.00000000E+00  0.00000000E+00  0.00000000E+00
  0.00000000E+00  0.00000000E+00  0.00000000E+00
  0.00000000E+00  0.00000000E+00  0.00000000E+00
  0.00000000E+00  0.00000000E+00  0.00000000E+00
  0.00000000E+00  0.00000000E+00  0.00000000E+00
  0.00000000E+00  0.00000000E+00  0.00000000E+00
  0.00000000E+00  0.00000000E+00  0.00000000E+00
  0.00000000E+00  0.00000000E+00  0.00000000E+00
  0.00000000E+00  0.00000000E+00  0.00000000E+00
  0.00000000E+00  0.00000000E+00  0.00000000E+00
  0.00000000E+00  0.00000000E+00  0.00000000E+00
  0.00000000E+00  0.00000000E+00  0.00000000E+00
  0.00000000E+00  0.00000000E+00  0.00000000E+00
  0.00000000E+00  0.00000000E+00  0.00000000E+00
  0.00000000E+00  0.00000000E+00  0.00000000E+00
  0.00000000E+00  0.00000000E+00  0.00000000E+00
  0.00000000E+00  0.00000000E+00  0.00000000E+00
  0.00000000E+00  0.00000000E+00  0.00000000E+00
  0.00000000E+00  0.00000000E+00  0.00000000E+00
  0.00000000E+00  0.00000000E+00  0.00000000E+00
  0.00000000E+00  0.00000000E+00  0.00000000E+00
  0.00000000E+00  0.00000000E+00  0.00000000E+00
  0.00000000E+00  0.00000000E+00  0.00000000E+00
  0.00000000E+00  0.00000000E+00  0.00000000E+00
  0.00000000E+00  0.00000000E+00  0.00000000E+00
  0.00000000E+00  0.00000000E+00  0.00000000E+00
  0.00000000E+00  0.00000000E+00  0.00000000E+00
  0.00000000E+00  0.00000000E+00  0.00000000E+00
  0.00000000E+00  0.00000000E+00  0.00000000E+00
  0.00000000E+00  0.00000000E+00  0.00000000E+00
  0.00000000E+00  0.00000000E+00  0.00000000E+00
  0.00000000E+00  0.00000000E+00  0.00000000E+00
  0.00000000E+00  0.00000000E+00  0.00000000E+00
  0.00000000E+00  0.00000000E+00  0.00000000E+00
  0.00000000E+00  0.00000000E+00  0.00000000E+00
  0.00000000E+00  0.00000000E+00  0.00000000E+00
  0.00000000E+00  0.00000000E+00  0.00000000E+00
  0.00000000E+00  0.00000000E+00  0.00000000E+00
  0.00000000E+00  0.00000000E+00  0.00000000E+00
  0.00000000E+00  0.00000000E+00  0.00000000E+00
  0.00000000E+00  0.00000000E+00  0.00000000E+00
  0.00000000E+00  0.00000000E+00  0.00000000E+00
  0.00000000E+00  0.00000000E+00  0.00000000E+00
  0.00000000E+00  0.00000000E+00  0.00000000E+00
  0.00000000E+00  0.00000000E+00  0.00000000E+00
  0.00000000E+00  0.00000000E+00  0.00000000E+00
  0.00000000E+00  0.00000000E+00  0.00000000E+00
  0.00000000E+00  0.00000000E+00  0.00000000E+00
  0.00000000E+00  0.00000000E+00  0.00000000E+00
  0.00000000E+00  0.00000000E+00  0.00000000E+00
  0.00000000E+00  0.00000000E+00  0.00000000E+00
  0.00000000E+00  0.00000000E+00  0.00000000E+00
  0.00000000E+00  0.00000000E+00  0.00000000E+00
  0.00000000E+00  0.00000000E+00  0.00000000E+00
  0.00000000E+00  0.00000000E+00  0.00000000E+00
  0.00000000E+00  0.00000000E+00  0.00000000E+00
  0.00000000E+00  0.00000000E+00  0.00000000E+00
  0.00000000E+00  0.00000000E+00  0.00000000E+00
  0.00000000E+00  0.00000000E+00  0.00000000E+00
  0.00000000E+00  0.00000000E+00  0.00000000E+00
  0.00000000E+00  0.00000000E+00  0.00000000E+00
  0.00000000E+00  0.00000000E+00  0.00000000E+00
  0.00000000E+00  0.00000000E+00  0.00000000E+00
  0.00000000E+00  0.00000000E+00  0.00000000E+00
  0.00000000E+00  0.00000000E+00  0.00000000E+00
  0.00000000E+00  0.00000000E+00  0.00000000E+00
  0.00000000E+00  0.00000000E+00  0.00000000E+00
  0.00000000E+00  0.00000000E+00  0.00000000E+00
  0.00000000E+00  0.00000000E+00  0.00000000E+00
  0.00000000E+00  0.00000000E+00  0.00000000E+00
  0.00000000E+00  0.00000000E+00  0.00000000E+00
  0.00000000E+00  0.00000000E+00  0.00000000E+00
  0.00000000E+00  0.00000000E+00  0.00000000E+00
  0.00000000E+00  0.00000000E+00  0.00000000E+00
  0.00000000E+00  0.00000000E+00  0.00000000E+00
  0.00000000E+00  0.00000000E+00  0.00000000E+00
  0.00000000E+00  0.00000000E+00  0.00000000E+00
  0.00000000E+00  0.00000000E+00  0.00000000E+00
  0.00000000E+00  0.00000000E+00  0.00000000E+00
  0.00000000E+00  0.00000000E+00  0.00000000E+00
  0.00000000E+00  0.00000000E+00  0.00000000E+00
  0.00000000E+00  0.00000000E+00  0.00000000E+00
  0.00000000E+00  0.00000000E+00  0.00000000E+00
  0.00000000E+00  0.00000000E+00  0.00000000E+00
  0.00000000E+00  0.00000000E+00  0.00000000E+00
  0.00000000E+00  0.00000000E+00  0.00000000E+00
  0.00000000E+00  0.00000000E+00  0.00000000E+00
  0.00000000E+00  0.00000000E+00  0.00000000E+00
  0.00000000E+00  0.00000000E+00  0.00000000E+00
  0.00000000E+00  0.00000000E+00  0.00000000E+00
  0.00000000E+00  0.00000000E+00  0.00000000E+00
  0.00000000E+00  0.00000000E+00  0.00000000E+00
  0.00000000E+00  0.00000000E+00  0.00000000E+00
  0.00000000E+00  0.00000000E+00  0.00000000E+00
  0.00000000E+00  0.00000000E+00  0.00000000E+00
  0.00000000E+00  0.00000000E+00  0.00000000E+00
  0.00000000E+00  0.00000000E+00  0.00000000E+00
