CaF2optimization                        
   1.00000000000000     
    10.9489999999999998    0.0000000000000000    0.0000000000000000
     0.0000000000000000   10.9493369999999999    0.0000000000000000
     0.0000000000000000    0.0000000000000000   10.9493371100000001
   Ca   F 
    32    64
Direct
  0.0241789938943012  0.0180916497352574  0.0121214072284166
  0.0134312545487062  0.2612370896041269  0.2627580380004082
  0.2687241245919885  0.0217057890481436  0.2584543406474898
  0.2671324207413540  0.2698525355224736  0.0080747338336245
  0.0181831021416875  0.0079560621252866  0.5071882939081869
  0.0173855821945199  0.2582639482844304  0.7627563259095563
  0.2708677492438566  0.0198419145584871  0.7458513032707602
  0.2583944712943670  0.2626346436808943  0.4999888587108304
  0.0072710758664455  0.5170756620108885  0.0117738982368494
  0.0247389914689997  0.7688362941733313  0.2663151196313508
  0.2584950795471990  0.5147406265129321  0.2636804854629772
  0.2615930569622431  0.7678019284578438  0.0088719857528788
  0.0109662687697460  0.5051367539703560  0.5176776661055654
  0.0204961082697573  0.7678429911935186  0.7766339778761260
  0.2611793363240706  0.5062513234957766  0.7653637515897728
  0.2745685403943947  0.7541209494781896  0.5179380848612364
  0.5169866295445682  0.0174318691081916  0.0168933809247544
  0.5139750853661313  0.2693018372080044  0.2606439849344138
  0.7538299649210322  0.0068671892702894  0.2556354382449970
  0.7605406796325783  0.2671726485706329  0.0158054497804692
  0.5178147630275024  0.0090738825374766  0.5089376885101341
  0.5081275829908914  0.2701024813160993  0.7719481683646136
  0.7590625123464908  0.0079117642968523  0.7724994529887190
  0.7558059933241339  0.2522024874073392  0.5067369243775364
  0.5095223762751490  0.5185928671807092  0.0238131782654021
  0.5161591383538927  0.7587287835829833  0.2724762071696626
  0.7581011868995959  0.5143771629350790  0.2808446267260993
  0.7706095222936374  0.7662693518207192  0.0263663198844662
  0.5022369082064558  0.5014881617339799  0.5195486172262026
  0.5130169177081176  0.7571202713398731  0.7648738986303960
  0.7676903239328515  0.5184701045308849  0.7686003576549214
  0.7628392134057848  0.7615621038532804  0.5132722392103930
  0.1488690713477634  0.1444802560380154  0.1289378985052365
  0.3841913880176033  0.3940902042697021  0.1506036383417458
  0.3849551496792004  0.1382121586624870  0.3817161923737384
  0.1448848042764199  0.3899049085001510  0.3968953881074660
  0.1319843443798607  0.1374411790512457  0.3849951313924552
  0.3838930206934552  0.3858967530340806  0.4000607063956140
  0.1411303024033876  0.3866635577748115  0.1553841417945164
  0.3955648114967749  0.1543978989161136  0.1320416189462908
  0.1483638967080841  0.1550153849941214  0.6301855046672032
  0.3766497002682354  0.3814255324361547  0.6419786075654368
  0.3919663528322405  0.1402374569779409  0.8919960754227774
  0.1396791484540294  0.3857585394883578  0.8971748853714282
  0.1525710554338855  0.1432341604791899  0.8833691745929922
  0.3854288322042728  0.3943350881018727  0.8895467967514176
  0.1334882095619826  0.3934989565947519  0.6437742505262382
  0.3822897604891125  0.1595391558437705  0.6354189251818201
  0.1422931889587688  0.6552384743927774  0.1349771814587806
  0.3837539855802354  0.8986793951176274  0.1304756277627580
  0.4031905969390555  0.6382866401944528  0.3878404400700540
  0.1544467486860812  0.8771115334287605  0.3772748943715531
  0.1437715039379427  0.6393129744890205  0.3835355205223650
  0.3942612490019510  0.8819544810979868  0.3848575842583285
  0.1558432820893689  0.8882836108924879  0.1412610960133674
  0.3936169247945560  0.6531140910039094  0.1380290502640712
  0.1408141642494370  0.6423426299871814  0.6397301804017919
  0.3963946115623740  0.8887310770560884  0.6373469563099198
  0.3897045524241661  0.6368643708946644  0.8874794018197228
  0.1518340540985259  0.8961440039957500  0.8850242716633367
  0.1427641442147763  0.6375763319371263  0.9041389768519653
  0.3947329544557250  0.8894602998088601  0.8853746297785157
  0.1432350895765587  0.8854467105812999  0.6347430448339461
  0.3885497970462998  0.6384373694981258  0.6386175981891977
  0.6406407505960940  0.1414350961766813  0.1452823038016844
  0.8906578664709665  0.3947983504139605  0.1375177836936378
  0.8805663817845245  0.1295751721000340  0.3944235653217435
  0.6289063284384487  0.3751001191491435  0.3932286538596044
  0.6230417832751101  0.1254659492105163  0.3870122076172889
  0.8941577971095193  0.3857040229678235  0.3903399528639009
  0.6359977115930038  0.3926060620826679  0.1413571312898744
  0.8972399357011788  0.1473473223718320  0.1233944995146095
  0.6263439608653610  0.1414773326146047  0.6263942550974143
  0.8614557445453103  0.3836118676701487  0.6315025313837292
  0.8885739096674988  0.1527133028229605  0.8915662360395165
  0.6430909427718254  0.3866151776462086  0.8839822236975902
  0.6390657620157381  0.1248473810063369  0.8798000654047170
  0.8855723575196421  0.4042026543483262  0.8864743590059979
  0.6253001625995744  0.3888003331521048  0.6489369061867116
  0.9005356774842237  0.1386186155204011  0.6415434567464036
  0.6504463701705389  0.6406566953702132  0.1593029764706372
  0.8923791526531297  0.9013881532529566  0.1471005432243655
  0.8840979084994336  0.6396528394977381  0.3869955095629342
  0.6486779786249124  0.8924969241529791  0.3824768509968098
  0.6368622537178231  0.6339033894636998  0.4086928216978941
  0.9024407678716413  0.8955564921535210  0.3947932527224438
  0.6309772642496715  0.8837462770375921  0.1514897793182447
  0.8943693672764960  0.6464378795628963  0.1475501620517259
  0.6489950777643956  0.6544530666937095  0.6528231631404848
  0.8893321341488214  0.8874567917968988  0.6501803485680216
  0.8902435861246393  0.6506240542654922  0.8932351555888036
  0.6347493847687924  0.8849825883608602  0.8980104696151000
  0.6524997448881980  0.6319993838705755  0.9009548610411382
  0.8966014406472004  0.9181442719532474  0.8908995665600574
  0.6321177576906665  0.8925518763238408  0.6276561709885670
  0.8896776562940093  0.6372099266374749  0.6374804423499157
 
  0.11345863E-02  0.17554101E-02  0.57746126E-02
 -0.10218850E-02 -0.14607651E-02  0.10884917E-02
 -0.22824451E-02 -0.36268414E-03 -0.88664748E-03
  0.33457549E-02 -0.49042704E-03 -0.39696156E-02
 -0.28927698E-03  0.22707407E-02  0.76773528E-03
  0.35360941E-02  0.32717733E-02 -0.36208922E-02
 -0.42971180E-03  0.17142431E-02  0.89426013E-03
 -0.22449188E-02 -0.56070670E-03 -0.45547743E-02
  0.58106243E-04  0.44486901E-03 -0.22378207E-02
  0.40939422E-03  0.26187471E-02  0.12154435E-03
 -0.16205266E-02 -0.67462391E-04  0.68601123E-02
 -0.23398884E-02  0.37655616E-03  0.55347331E-02
 -0.21381670E-02 -0.85374794E-03  0.53176943E-02
 -0.25951579E-02 -0.25261706E-02 -0.11165855E-02
 -0.30112083E-02  0.12850193E-02 -0.27713434E-02
 -0.45687631E-04 -0.36122987E-02  0.20906893E-02
 -0.10516271E-02 -0.11416800E-02 -0.97830996E-03
  0.16431565E-02  0.15771765E-02  0.17260824E-02
  0.10794847E-02 -0.42171102E-02  0.27979572E-02
  0.45068905E-02 -0.33388564E-02  0.24388949E-03
 -0.13188389E-02  0.15341276E-02 -0.11944433E-02
 -0.74330571E-03  0.14979102E-02 -0.18129075E-02
  0.65969579E-03  0.10979408E-02 -0.28372889E-02
  0.17017183E-02 -0.13953751E-03  0.75667645E-03
  0.84860893E-03  0.22341264E-02  0.36690777E-02
  0.15534253E-02 -0.14404264E-02  0.22629162E-02
  0.13805731E-02  0.62476790E-03  0.15808010E-02
  0.23655910E-02 -0.61111365E-03 -0.12174354E-02
 -0.15338532E-02  0.11257148E-02 -0.26893699E-02
  0.83021865E-03  0.35059405E-02  0.35637014E-02
 -0.28467525E-02  0.18025973E-02  0.30867977E-03
  0.60723710E-02 -0.38138722E-03 -0.41122911E-02
 -0.64209509E-02 -0.31719535E-02  0.30665958E-02
  0.19821348E-03 -0.40749601E-02 -0.62600982E-03
  0.30748160E-04 -0.19746962E-02  0.21393530E-02
  0.19241462E-02 -0.13860959E-02 -0.12316662E-02
 -0.42956904E-02 -0.95001302E-03  0.81286847E-03
  0.31619356E-02  0.55771553E-02  0.12310211E-02
 -0.36452483E-02 -0.18418212E-02 -0.21931025E-02
 -0.43835509E-02  0.36174415E-02  0.26687243E-02
  0.26679744E-02 -0.17801483E-02  0.28074511E-02
 -0.32390856E-02 -0.62820426E-02 -0.51185796E-03
 -0.43779421E-02  0.66340018E-02 -0.24609423E-02
 -0.10895049E-02  0.23091474E-02  0.80193845E-02
  0.35196214E-03  0.26995160E-02  0.29231071E-02
  0.79819156E-02 -0.73749950E-02 -0.45037755E-02
 -0.48967304E-02  0.47911652E-02 -0.39080036E-02
  0.17534570E-02 -0.14696302E-03  0.45694414E-02
  0.69321596E-02  0.26865317E-02  0.41523896E-02
  0.48098160E-02 -0.31097646E-02 -0.39686670E-02
  0.63322761E-03 -0.31849169E-02 -0.34036169E-02
  0.22526327E-02 -0.10107009E-02  0.11265580E-02
  0.16355366E-02 -0.23544727E-02 -0.30354063E-03
 -0.52695197E-02  0.56759099E-02  0.19517604E-03
 -0.87837551E-03 -0.14982392E-02  0.24922104E-02
 -0.12441666E-02 -0.52614377E-02 -0.18904480E-02
  0.83065295E-02  0.16473458E-02 -0.85079828E-02
  0.25721318E-02 -0.15032857E-02 -0.41632983E-02
 -0.30710367E-02  0.17605041E-03 -0.38961306E-03
 -0.50197449E-02  0.27401678E-02  0.21006247E-02
  0.73718760E-02 -0.18029415E-02  0.23300044E-02
  0.32501149E-03 -0.26132653E-02 -0.49859149E-02
 -0.22248866E-02  0.27063201E-02 -0.52317348E-03
  0.48807923E-02 -0.25247926E-02 -0.41511360E-02
  0.16056838E-02 -0.38012195E-02 -0.50369912E-03
 -0.32969409E-03 -0.53194444E-02 -0.19976640E-02
 -0.58117285E-02 -0.70311967E-02  0.21415196E-02
 -0.51959700E-02  0.49561558E-02 -0.23621146E-02
  0.22584372E-02  0.62542816E-02 -0.25055915E-02
 -0.80476270E-03  0.15691359E-01 -0.20191628E-02
  0.29685523E-02  0.57265956E-02 -0.53631409E-02
 -0.29674055E-02 -0.51998728E-02  0.14881086E-02
 -0.10316017E-02  0.35499405E-03  0.40900151E-02
  0.16099582E-02 -0.28102917E-02 -0.26569430E-02
 -0.34361738E-02 -0.49890351E-02 -0.19882444E-02
  0.25216776E-02  0.12817174E-02 -0.24755605E-02
  0.76624747E-02 -0.23939088E-02 -0.10556926E-01
 -0.37185301E-02 -0.17359764E-02 -0.59701878E-03
 -0.74287179E-03 -0.80783830E-03 -0.25233030E-02
 -0.72344572E-02 -0.30300805E-02  0.57350878E-02
  0.20727154E-02 -0.17535713E-02  0.13433148E-02
 -0.43202071E-02 -0.13245910E-02 -0.15722341E-02
 -0.46814813E-02 -0.72419260E-03 -0.16305432E-02
  0.87877618E-04 -0.18985801E-02  0.19579611E-02
  0.36618632E-02  0.26764642E-02  0.14193843E-02
  0.95523960E-03  0.41584899E-02  0.67384851E-02
 -0.63388140E-03  0.10062132E-02  0.10672393E-02
 -0.60579943E-03  0.20099261E-02  0.45124996E-02
  0.20291221E-02  0.28669064E-02 -0.17693220E-02
 -0.48329351E-02 -0.21654466E-02  0.26390377E-02
  0.31137708E-02  0.49780128E-02 -0.38596632E-02
 -0.85650644E-02 -0.48578390E-02  0.15358610E-02
 -0.49318600E-02  0.35947284E-02  0.25778416E-02
  0.19898550E-04  0.32772887E-02 -0.44790414E-02
  0.66447080E-02 -0.75224829E-02 -0.49554045E-02
  0.30589075E-02 -0.47729615E-02 -0.30773776E-03
 
           1
  0.500000000000000     
  0.18761452E+01 -0.27875358E-02 -0.28024832E-02  0.18789402E+01
  0.24230806E-01  0.18171810E-01  0.12385104E-01
  0.13384589E-01  0.26117038E+00  0.26280774E+00
  0.26861989E+00  0.21689227E-01  0.25841385E+00
  0.26728521E+00  0.26983014E+00  0.78934619E-02
  0.18169892E-01  0.80597552E-02  0.50722335E+00
  0.17547062E-01  0.25841335E+00  0.76259098E+00
  0.27084813E+00  0.19920195E-01  0.74589214E+00
  0.25829195E+00  0.26260904E+00  0.49978087E+00
  0.72737294E-02  0.51709598E+00  0.11671708E-01
  0.24757687E-01  0.76895588E+00  0.26632067E+00
  0.25842108E+00  0.51473755E+00  0.26399375E+00
  0.26148620E+00  0.76781912E+00  0.91247286E-02
  0.10868627E-01  0.50509777E+00  0.51792050E+00
  0.20377597E-01  0.76772763E+00  0.77658299E+00
  0.26104183E+00  0.50631000E+00  0.76523720E+00
  0.27456645E+00  0.75395599E+00  0.51803356E+00
  0.51693861E+00  0.17379734E-01  0.16848707E-01
  0.51405012E+00  0.26937386E+00  0.26072281E+00
  0.75387926E+00  0.66746155E-02  0.25576321E+00
  0.76074649E+00  0.26702018E+00  0.15816587E-01
  0.51775454E+00  0.91439383E-02  0.50888314E+00
  0.50809364E+00  0.27017088E+00  0.77186538E+00
  0.75909264E+00  0.79619016E-02  0.77236989E+00
  0.75588370E+00  0.25219612E+00  0.50677148E+00
  0.50956113E+00  0.51869489E+00  0.23980726E-01
  0.51623008E+00  0.75866301E+00  0.27257954E+00
  0.75816423E+00  0.51440569E+00  0.28091681E+00
  0.77071755E+00  0.76624145E+00  0.26310726E-01
  0.50216686E+00  0.50153957E+00  0.51942581E+00
  0.51305483E+00  0.75728037E+00  0.76503663E+00
  0.76756032E+00  0.51855242E+00  0.76861445E+00
  0.76311652E+00  0.76154469E+00  0.51308445E+00
  0.14857585E+00  0.14433541E+00  0.12907793E+00
  0.38420044E+00  0.39390412E+00  0.15057505E+00
  0.38495655E+00  0.13812198E+00  0.38181389E+00
  0.14497267E+00  0.38984161E+00  0.39683914E+00
  0.13178818E+00  0.13739780E+00  0.38503225E+00
  0.38403741E+00  0.38615143E+00  0.40011692E+00
  0.14096384E+00  0.38657945E+00  0.15528399E+00
  0.39536463E+00  0.15456309E+00  0.13216349E+00
  0.14848573E+00  0.15493409E+00  0.63031371E+00
  0.37650178E+00  0.38113866E+00  0.64195523E+00
  0.39176643E+00  0.14054040E+00  0.89188370E+00
  0.13962939E+00  0.38586399E+00  0.89754109E+00
  0.15258713E+00  0.14335743E+00  0.88350266E+00
  0.38579334E+00  0.39399831E+00  0.88934113E+00
  0.13326459E+00  0.39371774E+00  0.64359579E+00
  0.38236983E+00  0.15953244E+00  0.63562759E+00
  0.14260975E+00  0.65536115E+00  0.13516680E+00
  0.38397363E+00  0.89853739E+00  0.13029440E+00
  0.40321951E+00  0.63814120E+00  0.38768501E+00
  0.15454962E+00  0.87706538E+00  0.37732634E+00
  0.14384619E+00  0.63920546E+00  0.38352166E+00
  0.39402061E+00  0.88221367E+00  0.38486650E+00
  0.15580317E+00  0.88821519E+00  0.14137490E+00
  0.39356011E+00  0.65287383E+00  0.13794272E+00
  0.14119349E+00  0.64241786E+00  0.63934166E+00
  0.39651207E+00  0.88866243E+00  0.63715684E+00
  0.38956431E+00  0.63687241E+00  0.88746161E+00
  0.15160482E+00  0.89626913E+00  0.88512020E+00
  0.14310079E+00  0.63749400E+00  0.90424538E+00
  0.39474780E+00  0.88934097E+00  0.88514695E+00
  0.14313349E+00  0.88557029E+00  0.63471915E+00
  0.38877268E+00  0.63832208E+00  0.63842804E+00
  0.64071408E+00  0.14126151E+00  0.14525930E+00
  0.89064281E+00  0.39455544E+00  0.13742656E+00
  0.88030098E+00  0.12925409E+00  0.39452136E+00
  0.62866905E+00  0.37532644E+00  0.39312079E+00
  0.62314492E+00  0.12575155E+00  0.38689779E+00
  0.89412105E+00  0.38642057E+00  0.39024775E+00
  0.63613327E+00  0.39286757E+00  0.14111222E+00
  0.89710443E+00  0.14710987E+00  0.12346245E+00
  0.62629685E+00  0.14149354E+00  0.62658103E+00
  0.86152927E+00  0.38348354E+00  0.63138120E+00
  0.88841699E+00  0.15248548E+00  0.89147544E+00
  0.64320610E+00  0.38667371E+00  0.88386918E+00
  0.63941568E+00  0.12473806E+00  0.87931798E+00
  0.88540255E+00  0.40412338E+00  0.88644710E+00
  0.62526624E+00  0.38876344E+00  0.64882168E+00
  0.90020531E+00  0.13848025E+00  0.64180535E+00
  0.65054102E+00  0.64057662E+00  0.15936432E+00
  0.89218186E+00  0.90132767E+00  0.14702875E+00
  0.88388412E+00  0.63961977E+00  0.38692105E+00
  0.64868199E+00  0.89241023E+00  0.38256626E+00
  0.63702948E+00  0.63402561E+00  0.40875764E+00
  0.90248439E+00  0.89574639E+00  0.39510096E+00
  0.63094832E+00  0.88379223E+00  0.15153851E+00
  0.89434170E+00  0.64652966E+00  0.14775622E+00
  0.64908774E+00  0.65458398E+00  0.65274237E+00
  0.88911143E+00  0.88735791E+00  0.65030086E+00
  0.89038578E+00  0.65085137E+00  0.89305890E+00
  0.63435825E+00  0.88476076E+00  0.89808060E+00
  0.65227453E+00  0.63216354E+00  0.90107258E+00
  0.89660235E+00  0.91829393E+00  0.89069503E+00
  0.63242120E+00  0.89220836E+00  0.62742988E+00
  0.88981735E+00  0.63699197E+00  0.63746639E+00
  0.00000000E+00  0.00000000E+00  0.00000000E+00
  0.00000000E+00  0.00000000E+00  0.00000000E+00
  0.00000000E+00  0.00000000E+00  0.00000000E+00
  0.00000000E+00  0.00000000E+00  0.00000000E+00
  0.00000000E+00  0.00000000E+00  0.00000000E+00
  0.00000000E+00  0.00000000E+00  0.00000000E+00
  0.00000000E+00  0.00000000E+00  0.00000000E+00
  0.00000000E+00  0.00000000E+00  0.00000000E+00
  0.00000000E+00  0.00000000E+00  0.00000000E+00
  0.00000000E+00  0.00000000E+00  0.00000000E+00
  0.00000000E+00  0.00000000E+00  0.00000000E+00
  0.00000000E+00  0.00000000E+00  0.00000000E+00
  0.00000000E+00  0.00000000E+00  0.00000000E+00
  0.00000000E+00  0.00000000E+00  0.00000000E+00
  0.00000000E+00  0.00000000E+00  0.00000000E+00
  0.00000000E+00  0.00000000E+00  0.00000000E+00
  0.00000000E+00  0.00000000E+00  0.00000000E+00
  0.00000000E+00  0.00000000E+00  0.00000000E+00
  0.00000000E+00  0.00000000E+00  0.00000000E+00
  0.00000000E+00  0.00000000E+00  0.00000000E+00
  0.00000000E+00  0.00000000E+00  0.00000000E+00
  0.00000000E+00  0.00000000E+00  0.00000000E+00
  0.00000000E+00  0.00000000E+00  0.00000000E+00
  0.00000000E+00  0.00000000E+00  0.00000000E+00
  0.00000000E+00  0.00000000E+00  0.00000000E+00
  0.00000000E+00  0.00000000E+00  0.00000000E+00
  0.00000000E+00  0.00000000E+00  0.00000000E+00
  0.00000000E+00  0.00000000E+00  0.00000000E+00
  0.00000000E+00  0.00000000E+00  0.00000000E+00
  0.00000000E+00  0.00000000E+00  0.00000000E+00
  0.00000000E+00  0.00000000E+00  0.00000000E+00
  0.00000000E+00  0.00000000E+00  0.00000000E+00
  0.00000000E+00  0.00000000E+00  0.00000000E+00
  0.00000000E+00  0.00000000E+00  0.00000000E+00
  0.00000000E+00  0.00000000E+00  0.00000000E+00
  0.00000000E+00  0.00000000E+00  0.00000000E+00
  0.00000000E+00  0.00000000E+00  0.00000000E+00
  0.00000000E+00  0.00000000E+00  0.00000000E+00
  0.00000000E+00  0.00000000E+00  0.00000000E+00
  0.00000000E+00  0.00000000E+00  0.00000000E+00
  0.00000000E+00  0.00000000E+00  0.00000000E+00
  0.00000000E+00  0.00000000E+00  0.00000000E+00
  0.00000000E+00  0.00000000E+00  0.00000000E+00
  0.00000000E+00  0.00000000E+00  0.00000000E+00
  0.00000000E+00  0.00000000E+00  0.00000000E+00
  0.00000000E+00  0.00000000E+00  0.00000000E+00
  0.00000000E+00  0.00000000E+00  0.00000000E+00
  0.00000000E+00  0.00000000E+00  0.00000000E+00
  0.00000000E+00  0.00000000E+00  0.00000000E+00
  0.00000000E+00  0.00000000E+00  0.00000000E+00
  0.00000000E+00  0.00000000E+00  0.00000000E+00
  0.00000000E+00  0.00000000E+00  0.00000000E+00
  0.00000000E+00  0.00000000E+00  0.00000000E+00
  0.00000000E+00  0.00000000E+00  0.00000000E+00
  0.00000000E+00  0.00000000E+00  0.00000000E+00
  0.00000000E+00  0.00000000E+00  0.00000000E+00
  0.00000000E+00  0.00000000E+00  0.00000000E+00
  0.00000000E+00  0.00000000E+00  0.00000000E+00
  0.00000000E+00  0.00000000E+00  0.00000000E+00
  0.00000000E+00  0.00000000E+00  0.00000000E+00
  0.00000000E+00  0.00000000E+00  0.00000000E+00
  0.00000000E+00  0.00000000E+00  0.00000000E+00
  0.00000000E+00  0.00000000E+00  0.00000000E+00
  0.00000000E+00  0.00000000E+00  0.00000000E+00
  0.00000000E+00  0.00000000E+00  0.00000000E+00
  0.00000000E+00  0.00000000E+00  0.00000000E+00
  0.00000000E+00  0.00000000E+00  0.00000000E+00
  0.00000000E+00  0.00000000E+00  0.00000000E+00
  0.00000000E+00  0.00000000E+00  0.00000000E+00
  0.00000000E+00  0.00000000E+00  0.00000000E+00
  0.00000000E+00  0.00000000E+00  0.00000000E+00
  0.00000000E+00  0.00000000E+00  0.00000000E+00
  0.00000000E+00  0.00000000E+00  0.00000000E+00
  0.00000000E+00  0.00000000E+00  0.00000000E+00
  0.00000000E+00  0.00000000E+00  0.00000000E+00
  0.00000000E+00  0.00000000E+00  0.00000000E+00
  0.00000000E+00  0.00000000E+00  0.00000000E+00
  0.00000000E+00  0.00000000E+00  0.00000000E+00
  0.00000000E+00  0.00000000E+00  0.00000000E+00
  0.00000000E+00  0.00000000E+00  0.00000000E+00
  0.00000000E+00  0.00000000E+00  0.00000000E+00
  0.00000000E+00  0.00000000E+00  0.00000000E+00
  0.00000000E+00  0.00000000E+00  0.00000000E+00
  0.00000000E+00  0.00000000E+00  0.00000000E+00
  0.00000000E+00  0.00000000E+00  0.00000000E+00
  0.00000000E+00  0.00000000E+00  0.00000000E+00
  0.00000000E+00  0.00000000E+00  0.00000000E+00
  0.00000000E+00  0.00000000E+00  0.00000000E+00
  0.00000000E+00  0.00000000E+00  0.00000000E+00
  0.00000000E+00  0.00000000E+00  0.00000000E+00
  0.00000000E+00  0.00000000E+00  0.00000000E+00
  0.00000000E+00  0.00000000E+00  0.00000000E+00
  0.00000000E+00  0.00000000E+00  0.00000000E+00
  0.00000000E+00  0.00000000E+00  0.00000000E+00
  0.00000000E+00  0.00000000E+00  0.00000000E+00
  0.00000000E+00  0.00000000E+00  0.00000000E+00
  0.00000000E+00  0.00000000E+00  0.00000000E+00
  0.00000000E+00  0.00000000E+00  0.00000000E+00
  0.00000000E+00  0.00000000E+00  0.00000000E+00
  0.00000000E+00  0.00000000E+00  0.00000000E+00
  0.00000000E+00  0.00000000E+00  0.00000000E+00
  0.00000000E+00  0.00000000E+00  0.00000000E+00
  0.00000000E+00  0.00000000E+00  0.00000000E+00
  0.00000000E+00  0.00000000E+00  0.00000000E+00
  0.00000000E+00  0.00000000E+00  0.00000000E+00
  0.00000000E+00  0.00000000E+00  0.00000000E+00
  0.00000000E+00  0.00000000E+00  0.00000000E+00
  0.00000000E+00  0.00000000E+00  0.00000000E+00
  0.00000000E+00  0.00000000E+00  0.00000000E+00
  0.00000000E+00  0.00000000E+00  0.00000000E+00
  0.00000000E+00  0.00000000E+00  0.00000000E+00
  0.00000000E+00  0.00000000E+00  0.00000000E+00
  0.00000000E+00  0.00000000E+00  0.00000000E+00
  0.00000000E+00  0.00000000E+00  0.00000000E+00
  0.00000000E+00  0.00000000E+00  0.00000000E+00
  0.00000000E+00  0.00000000E+00  0.00000000E+00
  0.00000000E+00  0.00000000E+00  0.00000000E+00
  0.00000000E+00  0.00000000E+00  0.00000000E+00
  0.00000000E+00  0.00000000E+00  0.00000000E+00
  0.00000000E+00  0.00000000E+00  0.00000000E+00
  0.00000000E+00  0.00000000E+00  0.00000000E+00
  0.00000000E+00  0.00000000E+00  0.00000000E+00
  0.00000000E+00  0.00000000E+00  0.00000000E+00
  0.00000000E+00  0.00000000E+00  0.00000000E+00
  0.00000000E+00  0.00000000E+00  0.00000000E+00
  0.00000000E+00  0.00000000E+00  0.00000000E+00
  0.00000000E+00  0.00000000E+00  0.00000000E+00
  0.00000000E+00  0.00000000E+00  0.00000000E+00
  0.00000000E+00  0.00000000E+00  0.00000000E+00
  0.00000000E+00  0.00000000E+00  0.00000000E+00
  0.00000000E+00  0.00000000E+00  0.00000000E+00
  0.00000000E+00  0.00000000E+00  0.00000000E+00
  0.00000000E+00  0.00000000E+00  0.00000000E+00
  0.00000000E+00  0.00000000E+00  0.00000000E+00
  0.00000000E+00  0.00000000E+00  0.00000000E+00
  0.00000000E+00  0.00000000E+00  0.00000000E+00
  0.00000000E+00  0.00000000E+00  0.00000000E+00
  0.00000000E+00  0.00000000E+00  0.00000000E+00
  0.00000000E+00  0.00000000E+00  0.00000000E+00
  0.00000000E+00  0.00000000E+00  0.00000000E+00
  0.00000000E+00  0.00000000E+00  0.00000000E+00
  0.00000000E+00  0.00000000E+00  0.00000000E+00
  0.00000000E+00  0.00000000E+00  0.00000000E+00
  0.00000000E+00  0.00000000E+00  0.00000000E+00
  0.00000000E+00  0.00000000E+00  0.00000000E+00
  0.00000000E+00  0.00000000E+00  0.00000000E+00
  0.00000000E+00  0.00000000E+00  0.00000000E+00
  0.00000000E+00  0.00000000E+00  0.00000000E+00
  0.00000000E+00  0.00000000E+00  0.00000000E+00
  0.00000000E+00  0.00000000E+00  0.00000000E+00
  0.00000000E+00  0.00000000E+00  0.00000000E+00
  0.00000000E+00  0.00000000E+00  0.00000000E+00
  0.00000000E+00  0.00000000E+00  0.00000000E+00
  0.00000000E+00  0.00000000E+00  0.00000000E+00
  0.00000000E+00  0.00000000E+00  0.00000000E+00
  0.00000000E+00  0.00000000E+00  0.00000000E+00
  0.00000000E+00  0.00000000E+00  0.00000000E+00
  0.00000000E+00  0.00000000E+00  0.00000000E+00
  0.00000000E+00  0.00000000E+00  0.00000000E+00
  0.00000000E+00  0.00000000E+00  0.00000000E+00
  0.00000000E+00  0.00000000E+00  0.00000000E+00
  0.00000000E+00  0.00000000E+00  0.00000000E+00
  0.00000000E+00  0.00000000E+00  0.00000000E+00
  0.00000000E+00  0.00000000E+00  0.00000000E+00
  0.00000000E+00  0.00000000E+00  0.00000000E+00
  0.00000000E+00  0.00000000E+00  0.00000000E+00
  0.00000000E+00  0.00000000E+00  0.00000000E+00
  0.00000000E+00  0.00000000E+00  0.00000000E+00
  0.00000000E+00  0.00000000E+00  0.00000000E+00
  0.00000000E+00  0.00000000E+00  0.00000000E+00
  0.00000000E+00  0.00000000E+00  0.00000000E+00
  0.00000000E+00  0.00000000E+00  0.00000000E+00
  0.00000000E+00  0.00000000E+00  0.00000000E+00
  0.00000000E+00  0.00000000E+00  0.00000000E+00
  0.00000000E+00  0.00000000E+00  0.00000000E+00
  0.00000000E+00  0.00000000E+00  0.00000000E+00
  0.00000000E+00  0.00000000E+00  0.00000000E+00
  0.00000000E+00  0.00000000E+00  0.00000000E+00
  0.00000000E+00  0.00000000E+00  0.00000000E+00
  0.00000000E+00  0.00000000E+00  0.00000000E+00
  0.00000000E+00  0.00000000E+00  0.00000000E+00
  0.00000000E+00  0.00000000E+00  0.00000000E+00
  0.00000000E+00  0.00000000E+00  0.00000000E+00
  0.00000000E+00  0.00000000E+00  0.00000000E+00
  0.00000000E+00  0.00000000E+00  0.00000000E+00
  0.00000000E+00  0.00000000E+00  0.00000000E+00
  0.00000000E+00  0.00000000E+00  0.00000000E+00
  0.00000000E+00  0.00000000E+00  0.00000000E+00
  0.00000000E+00  0.00000000E+00  0.00000000E+00
  0.00000000E+00  0.00000000E+00  0.00000000E+00
  0.00000000E+00  0.00000000E+00  0.00000000E+00
  0.00000000E+00  0.00000000E+00  0.00000000E+00
