&control
    calculation='scf',
    prefix='KF.opt.xyz',
    pseudo_dir='/global/home/users/asanzmatias/codes/mbxas/XCH_pseudos/',
    outdir='./',
    wf_collect =.TRUE.,
    restart_mode='from_scratch',
    tstress=.true., tprnfor=.true.
/
&system
    ibrav=1 , a=10.9489999999999998
    nat=96, ntyp=2, tot_charge=0,
    nbnd=460, occupations='smearing', smearing='fd', degauss=0.0019,
    ecutwfc =25, ecutrho=200,
    
    
/
&electrons
    diagonalization='david'
    conv_thr=1.0d-8,
    mixing_beta=0.3,
    mixing_mode='local-TF',
    electron_maxstep=200,
    diago_thr_init=,
            diago_full_acc=.false.,
    startingpot='atomic',
            mixing_fixed_ns=0
/
ATOMIC_SPECIES
Ca 40.078 Ca.pbe-2020.UPF
F 18.998 F.pbe-van-dgp-asm.UPF
ATOMIC_POSITIONS angstrom
Ca  0.253428   0.12044    0.119879
Ca  10.9412    2.89747    2.86795
Ca  3.07001    0.264912   2.88542
Ca  2.81194    2.94258    10.9399
Ca  0.26661    0.131512   5.55202
Ca  0.0514671  2.87218    8.28568
Ca  2.97691    0.0733929  8.46723
Ca  2.91455    2.90531    5.5953
Ca  0.0420363  5.63817    0.0981657
Ca  0.267309   8.34309    2.93206
Ca  2.81554    5.6188     2.9103
Ca  3.00378    8.31624    0.223033
Ca  0.0956003  5.59267    5.57335
Ca  0.128609   8.32429    8.27381
Ca  2.90758    5.56247    8.31658
Ca  2.80761    8.35757    5.66988
Ca  5.62865    0.121165   0.217668
Ca  5.58411    2.91999    2.94992
Ca  8.57557    0.0263698  2.922
Ca  8.14588    2.95625    0.198599
Ca  5.66726    0.0152078  5.64075
Ca  5.44848    2.85997    8.29724
Ca  8.48348    0.196922   8.30997
Ca  8.35705    2.92675    5.72942
Ca  5.56217    5.65487    0.245595
Ca  5.72224    8.36485    2.88314
Ca  8.44892    5.73977    2.90159
Ca  8.38234    8.53275    0.0840643
Ca  5.58852    5.62397    5.59343
Ca  5.68613    8.29217    8.46125
Ca  8.28264    5.71051    8.46862
Ca  8.41949    8.29341    5.57167
F  1.52153    1.41002    1.4217
F  3.99173    4.24217    1.48885
F  4.36826    1.53045    4.47936
F  1.42994    4.35228    4.23623
F  1.56249    1.65351    4.22237
F  4.2717     4.26798    4.17856
F  1.44755    4.14841    1.36216
F  4.24404    1.66454    1.61253
F  1.58281    1.39613    6.9905
F  4.2227     4.01897    6.97185
F  4.33329    1.69604    9.84739
F  1.4143     4.40229    9.69135
F  1.48448    1.41516    9.74972
F  4.20582    4.38314    9.77744
F  1.59212    4.21467    6.98551
F  4.29282    1.27225    7.02805
F  1.62695    7.01591    1.46206
F  4.35556    9.73689    1.48118
F  4.25911    6.93672    4.30765
F  1.45443    9.89383    4.20129
F  1.42942    7.13397    4.33889
F  4.27527    9.79134    4.33477
F  1.82648    9.71883    1.68244
F  4.26613    6.97601    1.62515
F  1.42136    6.83306    7.03359
F  4.28847    9.56717    7.03217
F  4.37674    6.99063    9.85938
F  1.61743    9.7565     9.81708
F  1.56274    7.11206    9.70406
F  4.34858    9.70903    9.7493
F  1.63497    9.8116     6.88141
F  4.18652    6.87843    7.07658
F  7.00414    1.52432    1.45542
F  9.69958    4.17838    1.57054
F  9.80448    1.56793    4.24546
F  6.91864    4.44606    4.22187
F  7.13335    1.6136     4.22429
F  9.57724    4.46487    4.275
F  6.80264    4.19696    1.62477
F  9.64617    1.47823    1.42909
F  7.09346    1.49921    7.03442
F  9.79327    4.23409    6.93138
F  9.66785    1.80022    9.85892
F  6.99177    4.31831    9.83472
F  6.99926    1.55574    9.73912
F  9.59291    4.50457    9.77443
F  6.97736    4.33965    7.03761
F  9.76912    1.46278    6.91781
F  7.0742     7.09335    1.61003
F  9.84546    9.66171    1.5394
F  9.74323    6.94605    4.35721
F  7.18076    9.74236    4.41778
F  7.05099    7.17686    4.29257
F  9.65982    9.63371    4.31259
F  7.04841    9.73656    1.62621
F  9.93328    7.05691    1.62079
F  6.96141    7.03091    6.8913
F  9.85439    9.68095    7.02713
F  9.5913     7.27404    9.60187
F  7.07428    9.73844    9.64851
F  6.93755    7.0085     9.87276
F  9.75337    9.8462     9.83379
F  7.13857    9.59383    7.03883
F  9.59762    6.88166    6.95861
K_POINTS automatic
1 1 1     0 0 0

