&control
    calculation='scf',
    prefix='KF.opt.xyz',
    pseudo_dir='/global/home/users/asanzmatias/codes/mbxas/XCH_pseudos/',
    outdir='./',
    wf_collect =.TRUE.,
    restart_mode='from_scratch',
    tstress=.true., tprnfor=.true.
/
&system
    ibrav=1 , a=10.9489999999999998
    nat=96, ntyp=2, tot_charge=0,
    nbnd=460, occupations='smearing', smearing='fd', degauss=0.0019,
    ecutwfc =25, ecutrho=200,
    
    
/
&electrons
    diagonalization='david'
    conv_thr=1.0d-8,
    mixing_beta=0.3,
    mixing_mode='local-TF',
    electron_maxstep=200,
    diago_thr_init=,
            diago_full_acc=.false.,
    startingpot='atomic',
            mixing_fixed_ns=0
/
ATOMIC_SPECIES
Ca 40.078 Ca.pbe-2020.UPF
F 18.998 F.pbe-van-dgp-asm.UPF
ATOMIC_POSITIONS angstrom
Ca 0.224798 0.194639 0.267863
Ca 0.248449 2.82353 2.81892
Ca 3.00043 0.156823 2.9834
Ca 2.87794 2.91844 0.034159
Ca 0.115239 0.175615 5.68989
Ca 0.0300787 2.95393 8.37646
Ca 2.92099 0.122818 8.44672
Ca 2.85855 2.88701 5.65719
Ca 0.0798415 5.63668 0.162674
Ca 0.182182 8.31108 2.90622
Ca 2.8304 5.61009 2.91268
Ca 2.99007 8.33038 0.177159
Ca 0.168382 5.63367 5.58595
Ca 0.275138 8.29498 8.32683
Ca 2.89272 5.63247 8.35803
Ca 2.92844 8.36488 5.59414
Ca 5.62655 0.15921 0.177077
Ca 5.63923 2.90769 2.93388
Ca 8.45728 0.119787 2.87664
Ca 8.31575 2.9737 0.186436
Ca 5.69881 0.1218 5.63542
Ca 5.64336 2.85172 8.34386
Ca 8.44202 0.123595 8.30928
Ca 8.25873 2.86637 5.56541
Ca 5.50069 5.70333 0.334899
Ca 5.68949 8.32619 2.97165
Ca 8.37998 5.61719 2.86301
Ca 8.38305 8.42521 0.13548
Ca 5.64463 5.64801 5.63058
Ca 5.58206 8.35706 8.33117
Ca 8.30687 5.64485 8.2852
Ca 8.37778 8.3554 5.6727
F  1.57342 1.60616 1.48188
F  4.27355 4.36706 1.56407
F  4.25477 1.52602 4.2841
F  1.36172 4.30272 4.2481
F  1.61345 1.40734 4.27633
F  4.23327 4.29467 4.24703
F  1.50073 4.25188 1.43593
F  4.15353 1.5481 1.48118
F  1.47741 1.66752 6.93354
F  4.24042 4.29803 7.01103
F  4.33899 1.4938 9.79907
F  1.37907 4.37707 9.75182
F  1.58145 1.61812 9.53935
F  4.19876 4.28238 9.76116
F  1.42167 4.36539 6.96226
F  4.32397 1.42969 7.03346
F  1.55158 7.08717 1.49831
F  4.39024 9.71283 1.4711
F  4.20999 7.0421 4.23813
F  1.64 9.86649 4.38153
F  1.5211 6.96237 4.35
F  4.20071 9.6568 4.24527
F  1.61806 9.71754 1.59382
F  4.35344 7.04139 1.66717
F  1.60623 7.07225 7.02962
F  4.35242 9.66961 6.94236
F  4.22634 6.89827 9.71654
F  1.44986 9.60764 9.81704
F  1.50505 6.89008 9.78487
F  4.21376 9.70805 9.76258
F  1.61706 9.80919 7.03387
F  4.28059 6.89626 6.91034
F  7.09791 1.50992 1.63929
F  9.80809 4.35648 1.53915
F  9.83692 1.42627 4.21868
F  6.92415 4.25495 4.29401
F  6.96397 1.5464 4.29982
F  9.6917 4.23253 4.28042
F  6.92223 4.34482 1.50009
F  9.85176 1.61755 1.46598
F  6.99714 1.54372 6.98672
F  9.62371 4.32859 6.9788
F  9.78053 1.49077 9.75603
F  7.01895 4.17572 9.77813
F  7.06028 1.4493 9.82204
F  9.72482 4.31262 9.62636
F  6.90181 4.29485 7.00768
F  9.66007 1.55447 6.80224
F  7.02368 7.06639 1.75676
F  9.74941 9.73446 1.70401
F  9.68964 6.90055 4.08218
F  7.05155 9.78608 4.40261
F  6.97425 6.8739 4.35052
F  9.88767 9.67423 4.36796
F  7.0239 9.76799 1.43638
F  9.70769 7.16118 1.41679
F  7.08399 7.07461 7.13019
F  9.76545 9.73298 7.07154
F  9.6454 7.02982 9.55815
F  6.9806 9.76467 9.74256
F  6.83989 6.98176 9.91123
F  9.70729 9.82368 9.69601
F  7.00003 9.70834 6.98834
F  9.77086 7.11327 6.9278
K_POINTS automatic
1 1 1     0 0 0

