&control
    calculation='scf',
    prefix='KF.opt.xyz',
    pseudo_dir='/global/home/users/asanzmatias/codes/mbxas/XCH_pseudos/',
    outdir='./',
    wf_collect =.TRUE.,
    restart_mode='from_scratch',
    tstress=.true., tprnfor=.true.
/
&system
    ibrav=1 , a=10.9489999999999998
    nat=96, ntyp=2, tot_charge=0,
    nbnd=460, occupations='smearing', smearing='fd', degauss=0.0019,
    ecutwfc =25, ecutrho=200,
    
    
/
&electrons
    diagonalization='david'
    conv_thr=1.0d-8,
    mixing_beta=0.3,
    mixing_mode='local-TF',
    electron_maxstep=200,
    diago_thr_init=,
            diago_full_acc=.false.,
    startingpot='atomic',
            mixing_fixed_ns=0
/
ATOMIC_SPECIES
Ca 40.078 Ca.pbe-2020.UPF
F 18.998 F.pbe-van-dgp-asm.UPF
ATOMIC_POSITIONS angstrom
Ca  0.2647358041487   0.1980915698373   0.1327213739915
Ca  0.1470588060538   2.8603729309748   2.8770263364287
Ca  2.9422604401577   0.2376639991390   2.8299037032921
Ca  2.9248328746971   2.9547063517400   0.0884129828179
Ca  0.1990867853493   0.0871136054027   5.5533756082465
Ca  0.1903547394478   2.8278190047168   8.3516761451688
Ca  2.9657309864710   0.2172558092261   8.1665773534444
Ca  2.8291610662020   2.8756752215370   5.4745465652690
Ca  0.0796110096617   5.6616356778553   0.1289163808941
Ca  0.2708672175941   8.4182476827349   2.9159740223336
Ca  2.8302626259623   5.6360685872812   2.8871265246626
Ca  2.8641823806796   8.4069220639348   0.0971423628434
Ca  0.1200696767599   5.5309125503075   5.6682272805079
Ca  0.2244118894456   8.4073716736659   8.5036272348460
Ca  2.8596525534122   5.5431163476513   8.3802257279307
Ca  3.0062509487782   8.2571244145967   5.6710786932535
Ca  5.6604866068835   0.1908674094055   0.1849713226728
Ca  5.6275132096738   2.9486765703096   2.8538788567407
Ca  8.2536842859204   0.0751911695632   2.7990385906071
Ca  8.3271599012971   2.9253633663824   0.1730591978215
Ca  5.6695538403881   0.0993529978012   5.5725303194816
Ca  5.5634889061673   2.9574430924662   8.4523207268712
Ca  8.3109754476817   0.0866285735508   8.4583569280641
Ca  8.2753198209059   2.7614500268612   5.5484334110942
Ca  5.5787604978366   5.6782480685578   0.2607385164884
Ca  5.6514264058368   8.3075771430502   2.9834338467548
Ca  8.3004498953637   5.6320889020801   3.0750624935562
Ca  8.4374036595930   8.3901413658566   0.2886937247651
Ca  5.4989919079525   5.4909628843359   5.6887129550440
Ca  5.6170222319862   8.2899650004317   8.3748621627442
Ca  8.4054413567408   5.6769038989339   8.4156644188303
Ca  8.3523265475799   8.3386001215186   5.6199907763192
F  1.6299674621867   1.5819630132065   1.4117845169888
F  4.2065115074047   4.3150264549478   1.6490100061963
F  4.2148739338376   1.5133315026930   4.1795392706457
F  1.5863437220225   4.2692002411223   4.3457414017929
F  1.4450965866151   1.5048897871094   4.2154414793247
F  4.2032446835726   4.2253135961759   4.3803995387903
F  1.5452356810147   4.2337095996954   1.7013533500562
F  4.3310391210782   1.6905546273245   1.4457681983931
F  1.6244363050568   1.6973156904854   6.9001135324367
F  4.1239375682369   4.1763566950479   7.0292401916424
F  4.2916395971602   1.5355071764745   9.7667657306010
F  1.5293469964232   4.2238002494858   9.8234702665574
F  1.6705004859456   1.5683190929987   9.6723068852011
F  4.2200602838046   4.3177077705521   9.7399477527519
F  1.4615624064941   4.3085526849043   7.0489012917494
F  4.1856905875953   1.7468479820290   6.9574160178896
F  1.5579681259096   7.1744268714924   1.4779106619498
F  4.2017223881180   9.8399435520991   1.4286216330133
F  4.4145338458857   6.9888155260868   4.2465957232178
F  1.6910374513639   9.6037897660983   4.1309100016138
F  1.5741541966165   7.0000532061527   4.1994597078587
F  4.3167664153224   9.6568168322020   4.2139354293847
F  1.7063280955965   9.7261166072387   1.5467153607784
F  4.3097117095756   7.1511662818505   1.5113266023145
F  1.5417742843671   7.0332259251960   7.0046214046603
F  4.3401246019964   9.7310160650601   6.9785266806698
F  4.2668751444922   6.9732426202187   9.7173111487053
F  1.6624310583248   9.8121827002788   9.6904291009741
F  1.5631246150076   6.9810381216035   9.8997224518427
F  4.3219311183357   9.7390005707282   9.6942652900864
F  1.5682809957737   9.6950544296961   6.9500155761147
F  4.2542317278599   6.9904659120285   6.9924393669521
F  7.0143755782766   1.5486205316659   1.5907449204421
F  9.7518129799906   4.3227801857265   1.5057285722817
F  9.6413213141588   1.4187622261563   4.3186765808359
F  6.8858953900726   4.1070976133041   4.3055930924203
F  6.8216844850792   1.3737689599308   4.2375271268870
F  9.7901337205521   4.2232033297304   4.2739637314084
F  6.9635389442318   4.2987760819861   1.5477668833954
F  9.8238800559922   1.6133554886968   1.3510879727052
F  6.8578400275148   1.5490829926584   6.8586018628289
F  9.4320789470266   4.2002956163199   6.9145341019388
F  9.7289957369494   1.6721094169916   9.7620592742905
F  7.0412027324087   4.2331798693632   9.6790193665123
F  6.9971310283103   1.3669960482058   9.6332275055163
F  9.6961317424826   4.4257510787543   9.7063065961278
F  6.8464114803027   4.2571058733947   7.1054289489588
F  9.8599651327748   1.5177819358063   7.0244755786311
F  7.1217373069972   7.0147660589148   1.7442619920034
F  9.7706593423991   9.8696026577743   1.6106534368277
F  9.6799880001603   7.0037745026676   4.2373442942608
F  7.1023751879642   9.7722495940144   4.1878679783353
F  6.9730048159564   6.9408218366803   4.4749154792074
F  9.8808239674266   9.8057498351268   4.3227244128115
F  6.9085700662697   9.6764358097800   1.6587126624750
F  9.7924502023104   7.0780661928996   1.6155764649395
F  7.1058471064424   7.1658271779129   7.1479808864417
F  9.7372975367954   9.7170634863231   7.1190438187686
F  9.7472770244787   7.1239020304592   9.7803328370451
F  6.9498710138335   9.6899725990953   9.8326193601251
F  7.1442197067809   6.9199742377913   9.8648584944326
F  9.8168891736462  10.0530710482358   9.7547596854190
F  6.9210573289551   9.7728512838521   6.8724190053256
F  9.7410806587631   6.9770262264990   6.9799882643211
K_POINTS automatic
1 1 1     0 0 0

