&control
    calculation='scf',
    prefix='LiF.opt.xyz',
    pseudo_dir='/global/home/users/asanzmatias/codes/mbxas/XCH_pseudos/',
    outdir='./',
    wf_collect =.TRUE.,
    restart_mode='from_scratch',
    tstress=.true., tprnfor=.true.
/
&system
    ibrav=1 , a=8.201
    nat=64, ntyp=2, tot_charge=0,
    nbnd=153, occupations='smearing', smearing='fd', degauss=0.0019,
    ecutwfc =25, ecutrho=200,
    
    
/
&electrons
    diagonalization='david'
    conv_thr=1.0d-8,
    mixing_beta=0.3,
    mixing_mode='local-TF',
    electron_maxstep=200,
    diago_thr_init=,
            diago_full_acc=.false.,
    startingpot='atomic',
            mixing_fixed_ns=0
/
ATOMIC_SPECIES
F 18.998 F.pbe-van-dgp-asm.UPF
Li 6.941 Li.pbe-van-yufengl.UPF
ATOMIC_POSITIONS angstrom
Li 1.236 5.720  7.516
Li 1.502 5.681  3.302
Li 1.378 7.600  1.480
Li 1.392 7.842  5.470
Li 1.366 1.482  7.566
Li 1.469 1.562  3.572
Li 1.308 3.545  1.383
Li 1.406 3.702  5.594
Li 3.404 5.567  1.482
Li 3.158 5.789  5.509
Li 3.406 7.746  7.659
Li 3.535 7.875  3.399
Li 3.468 1.622  1.297
Li 3.460 1.685  5.480
Li 3.317 3.659  7.520
Li 3.319 3.593  3.352
Li 5.368 5.553  7.553
Li 5.362 5.521  3.518
Li 5.352 7.788  1.346
Li 5.344 7.648  5.600
Li 5.367 1.710  7.495
Li 5.359 1.594  3.576
Li 5.437 3.657  1.270
Li 5.412 3.607  5.526
Li 7.531 5.767  1.429
Li 7.484 5.667  5.395
Li 7.347 7.721  7.468
Li 7.318 7.698  3.356
Li 7.455 1.438  1.500
Li 7.401 1.515  5.488
Li 7.467 3.703  7.493
Li 7.611 3.511  3.409
F 1.278 5.644  1.433
F 1.319 5.701  5.439
F 1.518 7.712  7.540
F 1.340 7.665  3.412
F 1.468 1.527  1.330
F 1.343 1.647  5.496
F 1.270 3.636  7.531
F 1.307 3.543  3.507
F 3.334 5.583  7.548
F 3.459 5.553  3.447
F 3.370 7.690  1.333
F 3.373 7.863  5.417
F 3.538 1.521  7.686
F 3.380 1.494  3.339
F 3.289 3.537  1.449
F 3.324 3.572  5.607
F 5.453 5.730  1.345
F 5.396 5.729  5.462
F 5.278 7.779  7.448
F 5.370 7.726  3.439
F 5.441 1.512  1.555
F 5.390 1.602  5.474
F 5.454 3.637  7.503
F 5.243 3.548  3.458
F 7.509 5.669  7.530
F 7.397 5.559  3.272
F 7.515 7.643  1.383
F 7.295 7.821  5.544
F 7.512 1.465  7.521
F 7.562 1.590  3.461
F 7.469 3.487  1.401
F 7.474 3.592  5.534
K_POINTS automatic
1 1 1  0 0 0

