&control
    calculation='scf',
    prefix='MgF.opt.xyz',
    pseudo_dir='/global/home/users/asanzmatias/codes/mbxas/XCH_pseudos/',
    outdir='./',
    wf_collect =.TRUE.,
    restart_mode='from_scratch',
    tstress=.true., tprnfor=.true.
/
&system
    ibrav=6 , a=9.2444238980900000 , c=9.1820558111700006
    nat=72, ntyp=2, tot_charge=0,
    nbnd=230, occupations='smearing', smearing='fd', degauss=0.0019,
    ecutwfc =25, ecutrho=200,
    
    
/
&electrons
    diagonalization='david'
    conv_thr=1.0d-8,
    mixing_beta=0.3,
    mixing_mode='local-TF',
    electron_maxstep=200,
    diago_thr_init=,
            diago_full_acc=.false.,
    startingpot='atomic',
            mixing_fixed_ns=0
/
ATOMIC_SPECIES
F 18.998 F.pbe-van-dgp-asm.UPF
Mg 24.305 Mg.pbe-van-yufengl.UPF
ATOMIC_POSITIONS angstrom
Mg  6.8590356495537   6.9267131524693   7.5449530151694
Mg  6.9450179437856   6.9927123302261   4.4714969130613
Mg  6.9230889685243   7.0042272770778   1.4160856624950
Mg  6.9952660098837   2.3007392775632   7.7110626485915
Mg  7.0203572252279   2.2152121787640   4.5855856092852
Mg  6.9780411521671   2.2794092485262   1.5411930093334
Mg  4.5416322810276   4.5783819166824   6.1441683304782
Mg  4.6144379432121   4.5686445801021   3.0213968757372
Mg  4.6710586529244   4.6882003108259   9.1622735310276
Mg  4.6390112859296   0.0338346839112   6.2735905089833
Mg  4.5541907384489   9.2294649411151   3.1087078507784
Mg  4.6332006108442   0.0390424376700   0.0378149195499
Mg  2.2939887219001   6.8850715525761   7.6732701332577
Mg  2.3836623145945   6.8436309264584   4.6200654225234
Mg  2.2841496042126   6.9466844360817   1.4961793580275
Mg  2.2883172678386   2.2169007652333   7.7101701527666
Mg  2.2373735588422   2.3723201460254   4.6282122933624
Mg  2.4229606379180   2.3904451332970   1.5310629062597
Mg  0.0586656687227   4.6634824777629   6.1520260583797
Mg  9.1667697204594   4.6570805293250   2.9739623754167
Mg  0.0461076735226   4.6200351645497   9.1709731616265
Mg  0.0321906555652   0.0511305388034   6.1767819826933
Mg  0.1521715373441   9.1022586176175   3.0863189686323
Mg  9.2347440618263   9.2427469595949   9.1074993543945
F  0.9039471322500   8.2131168924615   7.6593484838779
F  0.9531715632898   8.1975830247643   4.7301563434676
F  0.9537180936307   8.3361545354465   1.4492697040171
F  0.8082874977488   3.5963516655330   7.5992873713293
F  0.6523064257606   3.7257597334704   4.4515106994594
F  0.9296203765228   3.7305851378567   1.5338365298586
F  8.3315907482565   0.9974685315035   7.6289724068434
F  8.5480720448900   1.0395093056206   4.6176545819496
F  8.2702468774862   0.8762018428046   1.5480078393358
F  8.3382950818001   5.5186388348981   7.5665299281201
F  8.2592296504172   5.5244155829478   4.6191485942506
F  8.1958252900043   5.5773012680725   1.3189323500093
F  7.8225497818565   7.8664089341544   6.1205726507369
F  7.9187198010010   7.8698231772326   3.0509410585152
F  7.8091920515450   7.9238071923606   9.1003010817413
F  7.8347811715603   3.3159933410927   6.2800211617707
F  7.8172824015636   3.3129544216247   3.0192049353740
F  7.9166885237379   3.2490945884463   0.0335265322039
F  5.8947895437667   6.1177693006237   5.9862387151167
F  5.9152837844391   6.1824322893503   3.0154203674303
F  6.0658771137353   5.9950500355977   9.0578387564631
F  6.1844723488161   1.2781688071838   6.1985368438856
F  6.1021693352956   1.2918329901475   3.0798517712628
F  6.0138936843831   1.4968567478018   9.1805630843568
F  5.5372468433183   8.3967967544428   7.7192501041172
F  5.5480256566950   8.3460923835812   4.5977880105349
F  5.4876795365961   8.3328543685591   1.5073441869705
F  5.4088264496302   3.6811308904388   7.7202138526951
F  5.5322465344319   3.6317897023251   4.6218260817252
F  5.4590060145472   3.6455715668051   1.4530879701056
F  3.6035099927342   0.8596638457837   7.8342327652948
F  3.7845080473428   1.0391527481908   4.6991931657845
F  3.7713685778794   1.0099987934319   1.5991070817717
F  3.5716685915039   5.4361274520630   7.5960091019430
F  3.5579102078606   5.3683512187002   4.6015065594973
F  3.7899253721913   5.7637334723810   1.4118340951928
F  3.3691477616201   7.8272991970784   6.1449039967898
F  3.2323336159209   7.7822719193768   3.2287046489933
F  3.3165947833115   7.8166386198833   9.1201950156823
F  3.1377216519802   3.2632642565088   6.1789531716104
F  3.1225913033862   3.3544926688587   3.0767351060588
F  3.2135439545711   3.2383090266402   0.0481095650637
F  1.4274084754886   6.0252174565486   6.1113795764587
F  1.2015421472695   6.0823903357002   3.0272505281374
F  1.5416702019786   5.9009392118765   9.1551304425299
F  1.3901968035273   1.3789701902570   6.1591799817033
F  1.6113696452892   1.2652844838201   3.1501947662677
F  1.4431052299348   1.2948078457580   9.1534544418827
K_POINTS automatic
1 1 1     0 0 0

