&control
    calculation='scf',
    prefix='MgF.opt.xyz',
    pseudo_dir='/global/home/users/asanzmatias/codes/mbxas/XCH_pseudos/',
    outdir='./',
    wf_collect =.TRUE.,
    restart_mode='from_scratch',
    tstress=.true., tprnfor=.true.
/
&system
    ibrav=6 , a=9.2444238980900000 , c=9.1820558111700006
    nat=72, ntyp=2, tot_charge=0,
    nbnd=230, occupations='smearing', smearing='fd', degauss=0.0019,
    ecutwfc =25, ecutrho=200,
    
    
/
&electrons
    diagonalization='david'
    conv_thr=1.0d-8,
    mixing_beta=0.3,
    mixing_mode='local-TF',
    electron_maxstep=200,
    diago_thr_init=,
            diago_full_acc=.false.,
    startingpot='atomic',
            mixing_fixed_ns=0
/
ATOMIC_SPECIES
F 18.998 F.pbe-van-dgp-asm.UPF
Mg 24.305 Mg.pbe-van-yufengl.UPF
ATOMIC_POSITIONS angstrom
Mg  7.0090768433967   6.9473876968414   7.6367492218574
Mg  6.9181156727127   6.8489782092074   4.6434156589044
Mg  6.9936515655707   6.8572906576937   1.5180966856934
Mg  6.9309348023156   2.2552184966676   7.6115045322822
Mg  6.8869090085842   2.3825231783767   4.6627451212909
Mg  6.8652805642349   2.4391804704470   1.4924819758833
Mg  4.6731954126260   4.6608230085950   6.1068704982945
Mg  4.4479541229732   4.6728671166802   3.0752494837940
Mg  4.6128250963367   4.5726099520569   0.0113915030461
Mg  4.6364889084102  -0.0554026385346   6.1176953057349
Mg  4.6553609411378   9.2209298494078   3.0248153101232
Mg  4.6583277299379   9.2609815507791   9.2331205143436
Mg  2.3156993354483   6.9409002907545   7.6338795466223
Mg  2.2139566278964   6.8964006598128   4.6409597086205
Mg  2.2330935390873   6.9932443154254   1.5664035167066
Mg  2.4297316101478   2.3207266948739   7.6390845591432
Mg  2.4768890923144   2.3198548487602   4.6174697010927
Mg  2.3075255123874   2.2360729940664   1.5665861323277
Mg -0.0208646669305   4.6096548370625   6.1593385024272
Mg -0.0042676086581   4.5348145066817   2.9919338793053
Mg  0.0548920182155   4.6594129219571   9.2078368007027
Mg  0.0545702503465   9.2536025766372   6.1226054668302
Mg  9.1945268603621   9.2521360198659   3.0977379335853
Mg  9.1705193724431   0.0802471718455  -0.0708973965748
F  0.9725966458006   8.3909596018374   7.6442256772847
F  0.9689147091190   8.4696579671899   4.5992791035897
F  0.7977886758438   8.3710766709314   1.5419067063812
F  1.0446965704074   3.7388477553889   7.6909347742141
F  0.8609209072121   3.7267548605965   4.5352313376527
F  0.9542522565906   3.7127881631998   1.4344778990225
F  8.3210221408342   0.8338808462762   7.5882802138119
F  8.3209520272616   0.9942886800627   4.5948795740073
F  8.3580938897298   1.0518475372841   1.5512621126251
F  8.2875585776543   5.3757899861030   7.7102088755171
F  8.4008266252824   5.5525083524699   4.6278540427008
F  8.3436748165865   5.5581003734745   1.5872350627197
F  7.8589202984361   7.7928212015980   6.1953757152331
F  7.7297572118047   7.9211222718664   3.0705087892993
F  7.8008266409180   7.9141728315370   9.2215342234302
F  7.7924839435980   3.2711555570294   6.1497556045703
F  7.7876475791766   3.2351013160431   3.0471002702356
F  7.8881598451359   3.1956956384501   0.0203029932051
F  5.9545363546352   6.0871769637980   6.0600618519000
F  5.9487942110169   6.1056793221631   3.1142042569766
F  6.0323574542640   5.9872050239977   0.0299952017037
F  6.1321759249394   1.2325299304499   6.1008254977024
F  6.0932044346217   1.3451035760217   3.0405310225055
F  5.9898822609014   1.4394247895072   9.2060145598559
F  5.5224170151776   8.3041307750119   7.5719646237106
F  5.5899955764740   8.3018362417791   4.5921224391974
F  5.3614070375271   8.1245520424703   1.4951887073939
F  5.5618598991436   3.7422584851227   7.6105536105481
F  5.4906993070855   3.8390627089444   4.5652284594980
F  5.5472053769575   3.7746672116996   1.5180529261766
F  3.7475426227216   0.7643928173696   7.6317218055940
F  3.8720037300943   0.9166588447182   4.5868169224860
F  3.7840854914244   0.9496886385263   1.5917923531558
F  3.5819009710819   5.4552103987015   7.6011413783238
F  3.5171911041148   5.4091325501804   4.5706833086137
F  3.5447089169555   5.4609773595988   1.4319989956389
F  3.2252697804837   7.7691091172198   6.1450354887762
F  3.2074711121828   7.8545687724004   3.1611220338139
F  3.1879085747878   7.8734396746580  -0.1113729601272
F  3.3205129715399   3.2676861476665   6.0603993153831
F  3.1365630201393   3.2921467673146   3.0170352659512
F  3.3489654773812   3.1451486644442  -0.0294757119639
F  1.5108306118384   6.0180248176663   6.2419800193127
F  1.3362650244992   5.9852960415473   3.0055022759185
F  1.4186867432744   6.0864340863605   9.2243342959823
F  1.4746704396900   1.5046546165600   6.0744122515750
F  1.4601484767438   1.3689752096785   3.1629666639018
F  1.4447743491679   1.3761221747785   9.1313722823305
K_POINTS automatic
1 1 1     0 0 0

