&control
    calculation='scf',
    prefix='MgF.opt.xyz',
    pseudo_dir='/global/home/users/asanzmatias/codes/mbxas/XCH_pseudos/',
    outdir='./',
    wf_collect =.TRUE.,
    restart_mode='from_scratch',
    tstress=.true., tprnfor=.true.
/
&system
    ibrav=6 , a=9.2444238980900000 , c=9.1820558111700006
    nat=72, ntyp=2, tot_charge=0,
    nbnd=230, occupations='smearing', smearing='fd', degauss=0.0019,
    ecutwfc =25, ecutrho=200,
    
    
/
&electrons
    diagonalization='david'
    conv_thr=1.0d-8,
    mixing_beta=0.3,
    mixing_mode='local-TF',
    electron_maxstep=200,
    diago_thr_init=,
            diago_full_acc=.false.,
    startingpot='atomic',
            mixing_fixed_ns=0
/
ATOMIC_SPECIES
F 18.998 F.pbe-van-dgp-asm.UPF
Mg 24.305 Mg.pbe-van-yufengl.UPF
ATOMIC_POSITIONS angstrom
Mg  7.0423761487338   6.8997503110627   7.6439263947580
Mg  6.8908288873356   6.8715818118913   4.5723315871834
Mg  7.0127498963579   6.9324753867734   1.5314830771336
Mg  6.9108130206973   2.2384705946262   7.6549798453641
Mg  6.8877662096981   2.3663891085409   4.6365350923907
Mg  6.8749656408149   2.2982023303128   1.5866723745100
Mg  4.6033314150083   4.5885490265298   6.0532132729472
Mg  4.5324318605873   4.7266770821975   3.0704098632722
Mg  4.7222481711522   4.6169285758988   0.0150843731071
Mg  4.6845321234231   9.1961030170420   6.1796302564059
Mg  4.7282717453200   0.0915368063311   3.1214178360733
Mg  4.6075876402152   9.1341565947221   0.0344758649542
Mg  2.3844426364157   6.9919227639810   7.5854521250947
Mg  2.2582751088315   6.9575723336604   4.5282336623036
Mg  2.1178488893827   6.9410240753289   1.5791388649992
Mg  2.4208012329396   2.1517951534904   7.6562084044316
Mg  2.3302215018147   2.2986216573808   4.5193576444126
Mg  2.3323480890882   2.2498767346086   1.5852498904237
Mg  0.0666851140101   4.6553895393056   6.1038331202492
Mg  9.1740206767881   4.5244251726049   2.9960803869163
Mg  9.2116830144144   4.6355881682043   9.1228361422159
Mg  0.0033984351134   0.0920550487348   6.0671518173097
Mg  9.1517791475548   0.0306718891630   3.0849259589452
Mg  0.0660364327851   0.0552223981534   0.0182551206199
F  0.9095736584113   8.4413885273346   7.7051832864350
F  0.9935021189858   8.5625452998333   4.5189539094186
F  0.7701108928211   8.4820726822447   1.5892432583166
F  0.8388207205534   3.6814151564736   7.7580002160515
F  0.8657760739766   3.6287267473550   4.6830438578444
F  1.0399904778845   3.8024308590637   1.3878479026178
F  8.4659925615394   1.0612728981384   7.5736284836472
F  8.3198379423779   1.0446320106795   4.5729794730414
F  8.2628646503382   0.9382425582483   1.5247275632116
F  8.4208515774238   5.6671486559362   7.5524590703334
F  8.2483788229783   5.4211489893536   4.5198375904698
F  8.3099542665672   5.4423236196249   1.6005795162416
F  7.8931024854928   7.8238131248264   5.9944527986042
F  7.7779898097829   7.7734972971012   3.1009520436963
F  7.7773902164489   7.9134559335892   9.1052037486211
F  7.8278006146306   3.2303495776639   6.2572809741693
F  8.0022856028260   3.0481173000208   2.9310446201703
F  7.8205509525213   3.2804022166408   0.0979735455313
F  6.0821876054842   5.9903421278391   6.1191318025390
F  6.0528409044869   5.9520471018413   3.1239461151409
F  6.0840927888053   5.9737077114769   0.0778030480693
F  6.0895763037289   1.2568188101911   6.1019801813865
F  6.0150732728725   1.3842830531155   3.1585491515681
F  5.9630222667816   1.2920364599175   0.0532164408648
F  5.6786723849906   8.3408903613652   7.6506392121205
F  5.4188864166046   8.2355156693453   4.6236874680792
F  5.4625994145606   8.2328392237384   1.5870258836587
F  5.3242548544852   3.5526656612947   7.6172664793514
F  5.5321551995238   3.6592029320640   4.6108911714596
F  5.5911533901741   3.7810744834185   1.6869553907189
F  3.8766635829653   0.9323672646399   7.7220422754688
F  3.6726301804433   0.9155905765939   4.5409071948369
F  3.6807996627305   0.8465390749544   1.5675029965930
F  3.7315455410555   5.6825992313740   7.5217297596118
F  3.6576869389890   5.5467703563739   4.5242879492804
F  3.5401014723306   5.4979770852647   1.6747663952707
F  3.2232575329820   7.9734859868351   6.1570308297201
F  3.0976375526253   7.8370529887333   2.9687942553034
F  3.2741078732971   7.7981297116873   9.0786505287030
F  3.2497469674408   3.1087137591188   6.1507200027611
F  3.3109641896036   3.1298527059139   2.9929237797695
F  3.2569170350604   3.2701396118946   0.0092606542089
F  1.4284447754075   5.9943530060358   5.9793985426401
F  1.1275201037884   6.1755797676916   3.0416961056217
F  1.2373684498653   6.3076378421836   9.1185621706974
F  1.5063240547600   1.3651029073002   6.1968729635521
F  1.4085994008486   1.5018790584171   3.0488092606175
F  1.6410791899244   1.2716793140516   0.0799630348783
K_POINTS automatic
1 1 1     0 0 0

