&control
    calculation='scf',
    prefix='MgF.opt.xyz',
    pseudo_dir='/global/home/users/asanzmatias/codes/mbxas/XCH_pseudos/',
    outdir='./',
    wf_collect =.TRUE.,
    restart_mode='from_scratch',
    tstress=.true., tprnfor=.true.
/
&system
    ibrav=6 , a=9.2444238980900000 , c=9.1820558111700006
    nat=72, ntyp=2, tot_charge=0,
    nbnd=230, occupations='smearing', smearing='fd', degauss=0.0019,
    ecutwfc =25, ecutrho=200,
    
    
/
&electrons
    diagonalization='david'
    conv_thr=1.0d-8,
    mixing_beta=0.3,
    mixing_mode='local-TF',
    electron_maxstep=200,
    diago_thr_init=,
            diago_full_acc=.false.,
    startingpot='atomic',
            mixing_fixed_ns=0
/
ATOMIC_SPECIES
F 18.998 F.pbe-van-dgp-asm.UPF
Mg 24.305 Mg.pbe-van-yufengl.UPF
ATOMIC_POSITIONS angstrom
Mg  6.9362504973287   6.9828323418812   7.6712639601061
Mg  6.8624422008071   6.8715649944659   4.5338070055410
Mg  6.9883017740174   6.9682968660424   1.5190383757151
Mg  6.8979677341546   2.3853221230534   7.5715398714672
Mg  6.9692699424618   2.2799035790766   4.6147426172352
Mg  6.9231706740123   2.3818622392967   1.4600036874245
Mg  4.5569764123865   4.6577571774237   6.0546674731444
Mg  4.6692712296331   4.5407210363784   3.1742471390920
Mg  4.6131891492505   4.5077897755937   0.0727924507901
Mg  4.5922766723026  -0.0797823636183   6.1329911442837
Mg  4.4973298651323   9.2035820034132   3.0394991186928
Mg  4.6325332678302   9.1791146946039   9.2328653713860
Mg  2.3524632441734   6.9387173380681   7.7188896721971
Mg  2.3106273864144   6.9278330703325   4.6613823788977
Mg  2.2998601795261   6.7696797503304   1.4927040083293
Mg  2.2602260112907   2.3876304816820   7.7445195176849
Mg  2.2875296904037   2.2990535887772   4.6497246293893
Mg  2.4112431952292   2.4196604856992   1.6945159878163
Mg  0.0402950394814   4.6230214362100   6.0708323276971
Mg -0.0628614442452   4.6328597682428   3.0056186647664
Mg  0.0614984690162   4.5163006000489   9.1808203707321
Mg  0.0390203593339   9.2717580154859   6.1331375115469
Mg  9.2983180971886   9.2464426841797   3.0179479188502
Mg  9.2445497017705   0.1087163607875  -0.0662723266978
F  1.0082329007814   8.4042424062864   7.6450353678555
F  0.8373083308312   8.2825563764961   4.5274216837562
F  0.8894558757303   8.3556848805876   1.3431573430951
F  0.9728513683153   3.7894436161105   7.5106731282701
F  0.9507470464001   3.6682814305781   4.6405881045478
F  0.9887336866631   3.8235866798326   1.5915706508838
F  8.1598884989253   0.8825261875165   7.6218147210089
F  8.4161271095146   0.9740469754821   4.5886738781093
F  8.2873284175791   0.9176843200519   1.5198673398764
F  8.2730744864114   5.5125343921838   7.6078381762724
F  8.3093485204803   5.5082964345494   4.4850617942993
F  8.3508369636066   5.5124287630405   1.5160986098031
F  7.9030105524285   7.8847417941780   6.0425114409972
F  7.7996348397059   7.8887376262890   3.1082487842725
F  7.8569568978998   7.9119522100082   9.1231637809969
F  7.8956464740247   3.2306764215948   6.0711696252907
F  7.8440780953651   3.1584072445622   3.0288498495981
F  7.9400171468031   3.1592280540314  -0.1064176006108
F  6.0281345900839   5.8703913031777   6.0354682787747
F  6.0670957405925   6.0051028513426   3.0945023756634
F  6.0895285545382   6.0601056477985   0.1047731704042
F  5.9687088719236   1.3724099881928   6.1012075066022
F  6.0785302690004   1.3994408673862   3.0321151681198
F  5.9474114379912   1.5004184908299   9.1822778632540
F  5.5360494921878   8.3047624639636   7.6379949736375
F  5.4297175022873   8.2324351053538   4.6417786211560
F  5.5982863112303   8.3513086785654   1.4881940444444
F  5.5113142835480   3.7369109660391   7.6166599493411
F  5.6298525743392   3.6923786898397   4.6510296473564
F  5.4488430796944   3.5944050841059   1.5655559807682
F  3.7001273110690   0.9155071119240   7.7109847234450
F  3.6573095861885   0.8136403971863   4.5127509517553
F  3.6248651338148   0.8534735373427   1.4318467143373
F  3.7597595946508   5.5651933550087   7.6349022289459
F  3.7325125222633   5.6360499269535   4.6828161572566
F  3.8367132468592   5.4074333843494   1.5597498954811
F  3.2673981566133   7.8208752402413   6.1564700520480
F  3.1532632228486   7.8666803603613   3.0005336756570
F  3.3254420008484   7.7760734225490   0.0475554106223
F  3.2118332326868   3.2127508877861   6.1616701640845
F  3.3213589743945   3.2068857289140   3.1945159378799
F  3.1407529516898   3.3881633056558   0.0726586651294
F  1.2885807185854   6.1246164296637   6.1796822861088
F  1.4259777874636   5.9507690948083   3.0489835290998
F  1.4082498271661   5.9431968054799   9.2229684533687
F  1.3212242452685   1.5051684330912   6.1619329652072
F  1.3642233033221   1.4457768163927   3.0774578058665
F  1.3185478985122   1.6493578340997   9.2432647988878
K_POINTS automatic
1 1 1     0 0 0

