&control
    calculation='scf',
    prefix='NaF.opt.xyz',
    pseudo_dir='/global/home/users/asanzmatias/codes/mbxas/XCH_pseudos/',
    outdir='./',
    wf_collect =.TRUE.,
    restart_mode='from_scratch',
    tstress=.true., tprnfor=.true.
/
&system
    ibrav=1 , a=9.4069
    nat=64, ntyp=2, tot_charge=0,
    nbnd=307, occupations='smearing', smearing='fd', degauss=0.0019,
    ecutwfc =25, ecutrho=200,
    
    
/
&electrons
    diagonalization='david'
    conv_thr=1.0d-8,
    mixing_beta=0.3,
    mixing_mode='local-TF',
    electron_maxstep=200,
    diago_thr_init=,
            diago_full_acc=.false.,
    startingpot='atomic',
            mixing_fixed_ns=0
/
ATOMIC_SPECIES
F 18.998 F.pbe-van-dgp-asm.UPF
Na 22.990 Na.pbe-van-yufengl.UPF
ATOMIC_POSITIONS angstrom
F  2.4593284645462   9.4481747533575   0.0645504541852
F  2.3197949260916  -0.2154168899091   4.7238985832767
F  2.3814411152576   4.8161794696612   9.4617024208040
F  2.2435067765669   4.6556369068839   4.7507498133946
F  2.5924675466377   2.3695034561296   2.3753596050398
F  2.5302585074659   2.3934054622989   7.0633963987573
F  2.3272729316471   7.0700077653440   2.4979956513832
F  2.2216043736344   6.9644259998057   7.2550274525028
F -0.0789007333693   2.3710618538902   0.0829617462568
F -0.0512715431940   2.3147125442571   4.5837313475051
F  0.1145050412829  -0.0474498005027   2.2493068609525
F  9.4533135625467   9.4770205520339   7.1246790708002
F  0.1130413381407   4.8830913409330   2.3960283229785
F  9.2286270282573   4.5782126001745   7.1184749618431
F  9.4376473851590   7.1294664592310   9.4727681632316
F -0.1496132381984   6.9717120511006   4.8301160865803
F  4.8530469666952   2.5186013690446  -0.0149351293075
F  4.7791919103220   2.3507614702453   4.6534156391204
F  4.7474309816446   9.3247060458946   2.6320917675792
F  4.6561421552195   9.1396917522298   7.0230289088793
F  4.7154289358920   4.6174732045069   2.3610601392390
F  4.7155929493198   4.5886223078028   7.0100361007017
F  4.6550181420424   7.1218806098910   9.3672127792965
F  4.5964067263854   7.0358623903856   4.7050805803548
F  7.0357138096987  -0.0588943513492   9.6288665103779
F  7.0108397479420   9.3898612251010   4.6414195108353
F  6.9527560078256   4.8111428454900  -0.1077626614878
F  6.9175610572668   4.6440356028127   4.6157604521017
F  6.9741469330533   2.3661538749010   2.1538822466848
F  7.0621986682430   2.4399423343377   7.1633215546338
F  7.1033415837868   6.9121766659683   2.2374144577638
F  7.0842429142014   7.2867938101567   6.9668243244005
Na  2.2967962967764   2.4631976965175   9.4816576316019
Na  2.3058151176078   2.5303344695211   4.4530541795902
Na  2.3426835041231   0.0027337328456   2.4215118474443
Na  2.3589935637819  -0.1459756719956   7.0207005561300
Na  2.5084557975117   4.8386460332876   2.3358359696094
Na  2.3826410991039   4.7818129296130   7.2905926016304
Na  2.2979792914222   7.0797476731223  -0.0708067616148
Na  2.3468479241547   6.9937701290915   4.8139943065934
Na -0.0667001046245   0.0980014727123  -0.0776607037053
Na  9.4073618727550  -0.1236676162104   4.6576975313920
Na  9.5597208348925   4.7560861083996   0.0052574192137
Na -0.0287756984523   4.6611525358184   4.6876674777214
Na  0.1698824790759   2.1947536275478   2.3171998267912
Na -0.1434003147833   2.3910624264166   6.8838043788982
Na -0.0940722586004   7.0891127513984   2.3348450938867
Na  9.4232790456136   6.9796230848392   7.1003100122947
Na  4.6133487839956  -0.0228348385714   0.0581001889665
Na  4.6957560644392   9.3626387621644   4.7765125164773
Na  4.8459815859642   4.6078161969433   9.4419340928395
Na  4.7695236031407   4.6636437037392   4.5999549373315
Na  4.7813507280339   2.3619534528979   2.2164447551151
Na  4.6903351235188   2.3247739130973   7.0473392088340
Na  4.7383673266458   7.0581624744516   2.4025796297876
Na  4.6023861934196   6.9939410490002   6.9737033122956
Na  7.1423650236765   2.5141139036433   9.3951983025598
Na  6.9675488868217   2.3370664366805   4.7337497404616
Na  7.0390597435318   9.4749261672914   2.4312126021862
Na  7.0029597584126   0.0480763865529   7.0492966339323
Na  7.1340978185944   4.7575127304028   2.2265118172143
Na  7.0177969615637   4.7757543355782   6.9855416624420
Na  7.1893985076984   7.1277920855560   0.1019364791764
Na  6.9781946203495   7.0925471248014   4.6770872168040
K_POINTS automatic
1 1 1     0 0 0

