&control
    calculation='scf',
    prefix='NaF.opt.xyz',
    pseudo_dir='/global/home/users/asanzmatias/codes/mbxas/XCH_pseudos/',
    outdir='./',
    wf_collect =.TRUE.,
    restart_mode='from_scratch',
    tstress=.true., tprnfor=.true.
/
&system
    ibrav=1 , a=9.4069
    nat=64, ntyp=2, tot_charge=0,
    nbnd=307, occupations='smearing', smearing='fd', degauss=0.0019,
    ecutwfc =25, ecutrho=200,
    
    
/
&electrons
    diagonalization='david'
    conv_thr=1.0d-8,
    mixing_beta=0.3,
    mixing_mode='local-TF',
    electron_maxstep=200,
    diago_thr_init=,
            diago_full_acc=.false.,
    startingpot='atomic',
            mixing_fixed_ns=0
/
ATOMIC_SPECIES
F 18.998 F.pbe-van-dgp-asm.UPF
Na 22.990 Na.pbe-van-yufengl.UPF
ATOMIC_POSITIONS angstrom
F  2.1863512414092   9.5086515803777   0.0665956657159
F  2.4231105539745  -0.0207520095743   4.6255515641527
F  2.3592255431004   4.6890779864366   9.5170606299341
F  2.2964085901075   4.8512070475001   4.7335841014678
F  2.3275522930884   2.2843927437874   2.3678866572771
F  2.4801903973430   2.1914381823368   6.7656613645973
F  2.2030131868328   7.2259355524942   2.2938285957770
F  2.4002207016336   7.0719095044045   7.1824922915334
F  0.0007943435734   2.3727742358402   0.0643785447326
F  0.0522618687354   2.2915161048786   4.6366697201311
F -0.0971201401640  -0.0029327158329   2.4526450113166
F  9.4418815149986   9.3763258031371   7.0863264742256
F -0.0126254600213   4.7178371342451   2.4455509689199
F  9.1540825334604   4.8643946039468   7.0134848868425
F  9.3831712449006   6.8388022716926   9.5564050809046
F -0.1211741952976   6.9466492224302   4.8100495487609
F  4.8888559302864   2.4251319071249   0.0140363313547
F  4.8759101000304   2.3214940745979   4.6420239007300
F  4.8243295439633   9.3029952975007   2.3206354653623
F  4.6946974987391   9.3961139169253   6.9975872079455
F  4.6156440685930   4.8464012181456   2.4447138216850
F  4.6253722061109   4.7397829726995   7.1089910221832
F  4.7421448457613   6.9427010597611   9.4691716200857
F  4.5667324883686   7.0464016763195   4.5852080957501
F  7.1917330865743  -0.1195432949886   9.4556717803441
F  7.0617719274151   9.4626860732901   4.7583620996117
F  7.1614764967840   4.7147922136838  -0.1747210364393
F  6.9979201099322   4.6116642780012   4.7689892805171
F  7.0159084623712   2.3275533573248   2.3503391432970
F  7.0025136228904   2.2674380814315   7.1084038533147
F  7.1269214719223   7.1194842685889   2.3914949622536
F  7.1845736649599   7.2589306278484   7.0755796094624
Na  2.3894206495610   2.3750635513071   9.3938776859283
Na  2.3642532674379   2.3839563839143   4.5738081619567
Na  2.2297730047066   0.0987182817915   2.3568112342069
Na  2.3637609451858  -0.0316386132733   6.9310453656531
Na  2.3983550106252   4.9464970999751   2.3238570068828
Na  2.3000743274548   4.8131324408765   6.9075055440225
Na  2.1096231643071   6.9074113542395  -0.0441794956766
Na  2.3064217653155   7.0437865237790   4.5542569764983
Na  0.1164907209848  -0.0923055904916   0.0708078619850
Na  9.3458891889156  -0.0684326716603   4.7031468326847
Na  9.3996437123856   4.6461342635199   0.1514251593824
Na -0.1092563750187   4.6459932847412   4.8173709331044
Na  0.0039737582564   2.3481489580010   2.2311767968212
Na -0.0444275838377   2.1513650909690   6.9954648224908
Na -0.0277545254523   6.9604546294955   2.4739958991468
Na  9.4180008801810   7.0606293570987   6.9608162886129
Na  4.8162802857618   0.0622591120623   0.2296725989108
Na  4.7627854675603   9.4863895826968   4.5162082571975
Na  4.9164958678067   4.5892308347142   9.3157966935587
Na  4.6892670450546   4.5991648786567   4.7521465928033
Na  4.7865309194130   2.3058934776422   2.3794882192895
Na  4.7263049418274   2.4103290866075   6.9762766571145
Na  4.7554165469294   7.0258892313828   2.3372161375353
Na  4.7203264614644   7.1996212762050   6.9864545658651
Na  7.1066599477648   2.1915771362315   9.4518370077109
Na  6.9618419731909   2.4506001649522   4.6959767041921
Na  7.0290056718502   9.4889058930816   2.5139792991744
Na  6.9490429793651   0.0392230375776   7.2010733149568
Na  7.1416461993667   4.8910272920718   2.5228347276028
Na  6.9950311712004   4.6256956741157   7.1254623746625
Na  7.1070797551026   7.0449085921971  -0.1290882054475
Na  7.1853776492084   7.2233536864300   4.6811569966358
K_POINTS automatic
1 1 1     0 0 0

