&control
    calculation='scf',
    prefix='NaF.opt.xyz',
    pseudo_dir='/global/home/users/asanzmatias/codes/mbxas/XCH_pseudos/',
    outdir='./',
    wf_collect =.TRUE.,
    restart_mode='from_scratch',
    tstress=.true., tprnfor=.true.
/
&system
    ibrav=1 , a=9.4069
    nat=64, ntyp=2, tot_charge=0,
    nbnd=307, occupations='smearing', smearing='fd', degauss=0.0019,
    ecutwfc =25, ecutrho=200,
    
    
/
&electrons
    diagonalization='david'
    conv_thr=1.0d-8,
    mixing_beta=0.3,
    mixing_mode='local-TF',
    electron_maxstep=200,
    diago_thr_init=,
            diago_full_acc=.false.,
    startingpot='atomic',
            mixing_fixed_ns=0
/
ATOMIC_SPECIES
F 18.998 F.pbe-van-dgp-asm.UPF
Na 22.990 Na.pbe-van-yufengl.UPF
ATOMIC_POSITIONS angstrom
F  2.3453587548790   0.1128537479133   9.4422386377596
F  2.4990218143214   9.5148308564461   4.6934265344254
F  2.4539656102094   4.8673912759604   9.3514482129097
F  2.1979355458089   4.6609935077347   4.6697728079875
F  2.2250691913707   2.6147793847368   2.2411109141484
F  2.3607197690406   2.2363343386633   6.9107847862812
F  2.2349709489660   7.2174923783953   2.3325026222938
F  2.2095004465307   6.8840982242102   6.9729354202740
F  9.4709161357740   2.5383413461531   0.1969378035643
F  0.2471255463923   2.3436871157981   4.8760305718828
F  0.0333734671344   9.3701224479443   2.4223150265733
F  9.3098757964717   9.4966210872128   7.2222381314646
F -0.1297340642590   4.6987868600431   2.4309472426509
F  9.4344581394597   4.4775477367943   6.8762757138503
F  0.0516383878541   7.1019013595266   9.4735444391321
F -0.3199958755706   6.9712755577960   4.7344423361091
F  4.6933301167248   2.4111421655643   9.3064673594771
F  4.6502945738990   2.3934058377218   4.4445792342536
F  4.7763007342798  -0.0257736492437   2.2652453691906
F  4.6543920509444   0.0584528105492   6.9770036677457
F  4.9018890790405   4.7830116596599   2.3810520999102
F  4.7149122633322   4.8861816840513   7.0083915667025
F  4.8359625850422   7.1778107416636  -0.0560316112500
F  4.6141694059697   7.0754483281768   4.7317889959636
F  7.0422759106378   9.4374186922890   0.0251117392505
F  7.0600067717530  -0.0367002719403   4.8297826443627
F  7.2032396428751   4.6035058721192   9.3857419061101
F  6.9926349975737   4.7859988138265   4.5891814908781
F  7.1021663941023   2.2637708075317   2.5461334745287
F  6.9761238020536   2.3590769879877   6.9818769735153
F  7.0238913828786   7.2205824947841   2.3456320910670
F  7.1378170868921   6.9451972330825   7.1754721856555
Na  2.3132987996092   2.2698983959772   9.3484077966913
Na  2.4793226044420   2.3350032457719   4.7199542557189
Na  2.3161650141581   0.1129274863264   2.3842177841983
Na  2.4560935722491  -0.0693127137864   7.1005364840355
Na  2.4049511640637   4.8220318231593   2.3007943892023
Na  2.3251386833758   4.5108434136934   6.9903424606941
Na  2.2812563833154   6.9346502501700   9.4402800754219
Na  2.3346463424071   7.0671404170923   4.7562900576914
Na  0.1351581180905   9.3194876756866  -0.0277063265877
Na -0.0698518867780  -0.1350601100282   4.8405659849681
Na  0.0336422738773   4.6629822881797   9.5354982373881
Na  9.2082183509336   4.7109537168223   4.6023565018036
Na  0.0795943060582   2.3791925128478   2.5520257071032
Na  9.3749794291590   2.2639889666623   7.1159580486114
Na  0.0925307505711   6.9603369247523   2.4052439780263
Na  9.2980277572488   6.9089663734877   7.1386318128927
Na  4.7376316738219   0.0668418981337   9.4627909622251
Na  4.7406141478199   0.0715192530003   4.5634820052071
Na  4.9555922950971   4.8358815921722   9.4885838562644
Na  4.7264865736475   4.9014389995256   4.6135567504208
Na  4.7818193344867   2.3066335454730   2.1662369939435
Na  4.5376273972939   2.4632359150284   7.0415463846401
Na  4.8019653018901   7.0732937716972   2.4062711101271
Na  4.5283882649070   7.0659932458959   7.0792424235802
Na  7.1858081018447   2.2457347944511   0.1743276633606
Na  6.9355560206625   2.2164408822680   4.6509148731914
Na  7.1694052505977   9.3843447098763   2.3730138410682
Na  6.9178336058072  -0.1273784184038   7.0433118223454
Na  7.2660438731849   4.4285353870620   2.3816643600419
Na  6.9727317544750   4.5047817398142   7.0689338271222
Na  7.0114251072788   7.0881405149733  -0.0596903906348
Na  6.9420352706511   7.0560163733181   4.7601613882943
K_POINTS automatic
1 1 1     0 0 0

