&control
    calculation='scf',
    prefix='KF.opt.xyz',
    pseudo_dir='/global/home/users/asanzmatias/codes/mbxas/XCH_pseudos/',
    outdir='./',
    wf_collect =.TRUE.,
    restart_mode='from_scratch',
    tstress=.true., tprnfor=.true.
/
&system
    ibrav=6 , a=9.5679 , c=9.6039145660000003
    nat=72, ntyp=2, tot_charge=0,
    nbnd=374, occupations='smearing', smearing='fd', degauss=0.0019,
    ecutwfc =25, ecutrho=200,
    
    
/
&electrons
    diagonalization='david'
    conv_thr=1.0d-8,
    mixing_beta=0.3,
    mixing_mode='local-TF',
    electron_maxstep=200,
    diago_thr_init=,
            diago_full_acc=.false.,
    startingpot='atomic',
            mixing_fixed_ns=0
/
ATOMIC_SPECIES
F 18.998 F.pbe-van-dgp-asm.UPF
Zn 65.38 Zn.pbe-van-dgp-b.UPF
ATOMIC_POSITIONS angstrom
Zn  2.3990396962122   2.3882496795379   1.6676667360464
Zn  2.2892329157695   2.4348698784393   4.7760258458630
Zn  2.4436845612754   2.3788539498385   8.1271360939622
Zn  2.4382489925324   7.1235318086216   1.5527810063063
Zn  2.4338196974165   7.0523611875264   4.8381305129276
Zn  2.4294040901804   7.1875610020300   8.0202945140540
Zn  7.2810741768867   2.5358364638088   1.6360174363232
Zn  7.1931278982262   2.3273118707406   4.7525912478221
Zn  7.0957925720493   2.3375989883389   8.0083107859870
Zn  7.1798450676524   7.2063827943770   1.5266631283505
Zn  7.2119034204979   7.1609374356097   4.7752516832923
Zn  7.1096401137164   7.1736200894197   8.0778248715971
Zn -0.0341005550720   9.6100867741518   0.1173051500952
Zn  0.2624050716501  -0.0444884581957   3.1799562232394
Zn  9.4009866579794  -0.0241872316092   6.4197131597194
Zn -0.0430982818636   4.9230285180972  -0.0939518471239
Zn  9.5585387178524   4.8810049774258   3.2647343491289
Zn  9.5233236550582   4.7459271219972   6.4413424623327
Zn  4.7691060688153   9.5226095086338  -0.0961561346714
Zn  4.7291033409556   9.6782340387976   3.2310319326967
Zn  4.7608573544659  -0.0448444844097   6.2579336812093
Zn  4.6907834246996   4.7309657846040  -0.1153352715860
Zn  4.8670341586281   4.7240503467802   3.1955743272828
Zn  4.8129044991329   4.8837098977662   6.3246777942939
F  3.2578426046815   3.4495755157219   9.5992696233392
F  3.4522316258011   3.3047675416848   3.2738187021427
F  3.2511526742517   3.4677024377767   6.5998283081736
F  3.5038714309348   7.9484609467023   9.5316004811231
F  3.3113169921686   7.9201849180016   3.2206785910595
F  3.4057037280950   7.9508245636228   6.4174485840037
F  8.1875180044940   3.3747698713424   0.0278269181319
F  8.1563720389171   3.2892227348045   3.2418383779903
F  8.1903537568319   3.1593359412161   6.3863708107571
F  8.1074369255162   8.1776731165094  -0.0358424891364
F  8.1682674469190   8.1734546901997   3.0467910761872
F  8.1630206033364   8.0165409892615   6.4159787669028
F  3.8658151395291   0.9991143852426   1.5180843301234
F  3.8250133062206   0.8622758071210   4.8156129557647
F  3.8215062538146   0.7924116756358   7.9816060967674
F  3.7571053842956   5.6649625860318   1.6017473868521
F  3.8491477825882   5.5223228873318   4.7396662924112
F  3.7802433664364   5.7049053576416   8.0445657850657
F  8.7238955563742   0.8439204092329   1.6261924611626
F  8.6914417233651   0.9481605111292   4.7324946367469
F  8.4487448326189   0.8484493535311   8.0261231836277
F  8.6064041460812   5.6196553338563   1.5506664847229
F  8.4922787136947   5.7347974477161   4.9011074215053
F  8.4759268729908   5.7696863763033   7.9116188315416
F  1.6205201915366   1.4788044227201   0.1370219893973
F  1.3664018036719   1.5989996681968   3.3615789226149
F  1.5488401256607   1.4411162958715   6.4089451072245
F  1.3626755649285   6.2619525043453  -0.1502766167542
F  1.3262251363154   6.2959951758963   3.2752919752273
F  1.2692880364122   6.2606991604398   6.5975893005418
F  6.3260259561615   1.4937520783045   0.1121179400506
F  6.2363068332189   1.4400662101700   3.2030169430633
F  6.1394790698514   1.5307182562673   6.3567839063930
F  6.1498144746964   6.2391926702367   9.6123943856262
F  6.2287717584148   6.2773203865481   3.3226933344931
F  6.0958836075733   6.3804606792505   6.4013318214097
F  0.9170015617534   3.8129789185372   1.7555744045435
F  0.9960677965808   3.9209360203112   4.7547502356828
F  0.7969663696730   3.7151080472362   8.0122601192017
F  1.1532370349085   8.8374000746143   1.5553866504495
F  0.9208504000682   8.5168104536423   4.9296556898008
F  0.8779433229697   8.6789811865525   8.1210090656942
F  5.7223781826864   3.8535048863611   1.4493416559008
F  5.8962483336423   3.8288368034855   4.8133461667174
F  5.8785049638984   3.9223041399723   7.9862636843239
F  5.7335467415063   8.6819084386653   1.5852288927725
F  5.9078719233911   8.6997310516579   4.6777391766845
F  5.7144307366710   8.6554508782912   7.9646746957768
K_POINTS automatic
1 1 1     0 0 0

