&control
    calculation='scf',
    prefix='KF.opt.xyz',
    pseudo_dir='/global/home/users/asanzmatias/codes/mbxas/XCH_pseudos/',
    outdir='./',
    wf_collect =.TRUE.,
    restart_mode='from_scratch',
    tstress=.true., tprnfor=.true.
/
&system
    ibrav=6 , a=9.5679 , c=9.6039145660000003
    nat=72, ntyp=2, tot_charge=0,
    nbnd=374, occupations='smearing', smearing='fd', degauss=0.0019,
    ecutwfc =25, ecutrho=200,
    
    
/
&electrons
    diagonalization='david'
    conv_thr=1.0d-8,
    mixing_beta=0.3,
    mixing_mode='local-TF',
    electron_maxstep=200,
    diago_thr_init=,
            diago_full_acc=.false.,
    startingpot='atomic',
            mixing_fixed_ns=0
/
ATOMIC_SPECIES
F 18.998 F.pbe-van-dgp-asm.UPF
Zn 65.38 Zn.pbe-van-dgp-b.UPF
ATOMIC_POSITIONS angstrom
Zn  2.3799549621726   2.4149162724905   1.5676166442126
Zn  2.3435236024615   2.3020208490540   4.7808763818649
Zn  2.5215306897876   2.4382560674052   8.0568535832457
Zn  2.4450185441756   7.2268214209177   1.6790458884473
Zn  2.3777687940414   7.1274530445404   4.8801478003595
Zn  2.4082721391983   7.0886199147505   8.0550373657373
Zn  7.1054787945564   2.3520928482181   1.5399695298628
Zn  7.2644502682681   2.4565675973328   4.7962823518240
Zn  7.2077965785466   2.3161047003932   7.9011699310775
Zn  7.1144920397892   7.0730461218964   1.6868823035855
Zn  7.1520363328755   7.2886031413989   4.6711503068685
Zn  7.0839649830763   7.0029067050608   7.9567555310806
Zn  9.3828083927536   9.5675593660118   9.5201542363407
Zn  0.0964219238246   9.5225453740609   3.0660507078217
Zn  0.0715121575825   9.4650263505661   6.3817842495470
Zn  9.6146755974640   4.8172330526192   0.1381049194274
Zn  9.4962040971838   4.8450792067627   3.1923454505842
Zn -0.0257788436908   4.9165542303747   6.3732724590146
Zn  4.8309853265912   9.4997639951398   9.5253900774205
Zn  4.7663068487623   9.7739705125651   3.0920021432591
Zn  4.7641967311290  -0.0378644176373   6.3274502255343
Zn  4.7870336252758   4.8110992446886   0.0623751491666
Zn  4.6981281721097   4.6923464970001   3.2709326523327
Zn  4.8702218551400   4.7626820266917   6.4594752277154
F  3.3162759353744   3.4080197931288   0.1595119040773
F  3.2132864232466   3.3757834047319   3.2515177194306
F  3.3821662605973   3.3273408724447   6.4682859739471
F  3.3711738542262   8.0275103239357   9.6461321061796
F  3.1652932856432   8.1044479003229   3.3111832625594
F  3.2670975279906   8.1770869000911   6.5372519493769
F  8.1545189066946   3.4083178432753  -0.1329305537725
F  8.1699822218283   3.2800291559201   3.0733628939734
F  8.2691801609759   3.1870088850863   6.3487079732759
F  8.0615768238542   8.0041355019255  -0.0785240668503
F  8.2287378595689   8.1793903990609   3.0942815498252
F  8.0911356484332   8.1033723530809   6.3742239722197
F  3.9915111249806   1.1014004738411   1.5216583591979
F  3.9352499647942   0.9703495938778   4.6977589471119
F  4.1043061939215   1.1097895732990   8.1211440422521
F  3.8305259251009   5.7219439658459   1.6416291076336
F  3.6918124800443   5.6730487063848   4.9438604432941
F  3.8519305018723   5.7431615351802   7.9298695285301
F  8.5118973749431   1.0043389629724   1.5512541629729
F  8.6827069278091   1.0020737974788   4.8831069547608
F  8.6901530175211   0.9441566939485   7.8781789384725
F  8.5912813924928   5.7874262296225   1.6716347919765
F  8.5847039649221   5.7860659827984   4.7870232204795
F  8.6769639560118   5.8045136331002   7.9242483514773
F  1.3399842113911   1.5077368565389   9.7114592751132
F  1.6013684932200   1.3300913731718   3.2440818885213
F  1.5456727281096   1.3772296416685   6.4687671531230
F  1.4439052049419   6.3246588938317   0.0597986492708
F  1.4208892823363   6.0813347663413   3.3800853720617
F  1.4012634437860   6.3494412458525   6.3629065019013
F  6.3679292577880   1.3905857152458   9.5182088474400
F  6.2513847706466   1.6049433044949   3.2047151134709
F  6.0020472885129   1.5638110536576   6.3962327473323
F  6.3907828675117   5.9454262400858   9.6939275864372
F  6.2922734099622   6.2106079451149   3.2742182898810
F  6.0014725245445   6.4838485268570   6.4958086268672
F  1.0061492327212   3.8222196839900   1.7055469713764
F  0.8094256971245   3.7559994139520   4.8420703345045
F  1.0840071663352   3.9319402565543   8.2117403495044
F  0.8462081649630   8.5505010684275   1.4844302787140
F  0.9821433876269   8.6285187307353   4.8355522049135
F  0.7592445905752   8.4629737301203   8.1122560626012
F  5.7611192310668   3.8831184784781   1.6324097338773
F  5.8515147212525   4.0181491446751   4.8059641866075
F  5.7302445581593   3.9897521380220   8.0579897583866
F  5.7724616480893   8.7732800409578   1.6484072715602
F  5.5800950865956   8.5962029172892   4.7063680178662
F  5.7599717142269   8.6056904145400   7.9516783553515
K_POINTS automatic
1 1 1     0 0 0

